\ This file has been generated by DOcplex
\ ENCODING=ISO-8859-1
\Problem name: School_Schedule

Minimize
 obj:
Subject To
 OneGrouping_11_7_1_1: y_11_7_group0_1_1 + y_11_7_group1_1_1 <= 1
 OneGrouping_11_7_1_2: y_11_7_group0_1_2 + y_11_7_group1_1_2 <= 1
 OneGrouping_11_7_1_3: y_11_7_group0_1_3 + y_11_7_group1_1_3 <= 1
 OneGrouping_11_7_1_4: y_11_7_group0_1_4 + y_11_7_group1_1_4 <= 1
 OneGrouping_11_7_1_5: y_11_7_group0_1_5 + y_11_7_group1_1_5 <= 1
 OneGrouping_11_7_1_6: y_11_7_group0_1_6 + y_11_7_group1_1_6 <= 1
 OneGrouping_11_7_2_1: y_11_7_group0_2_1 + y_11_7_group1_2_1 <= 1
 OneGrouping_11_7_2_2: y_11_7_group0_2_2 + y_11_7_group1_2_2 <= 1
 OneGrouping_11_7_2_3: y_11_7_group0_2_3 + y_11_7_group1_2_3 <= 1
 OneGrouping_11_7_2_4: y_11_7_group0_2_4 + y_11_7_group1_2_4 <= 1
 OneGrouping_11_7_2_5: y_11_7_group0_2_5 + y_11_7_group1_2_5 <= 1
 OneGrouping_11_7_2_6: y_11_7_group0_2_6 + y_11_7_group1_2_6 <= 1
 OneGrouping_11_7_3_1: y_11_7_group0_3_1 + y_11_7_group1_3_1 <= 1
 OneGrouping_11_7_3_2: y_11_7_group0_3_2 + y_11_7_group1_3_2 <= 1
 OneGrouping_11_7_3_3: y_11_7_group0_3_3 + y_11_7_group1_3_3 <= 1
 OneGrouping_11_7_3_4: y_11_7_group0_3_4 + y_11_7_group1_3_4 <= 1
 OneGrouping_11_7_3_5: y_11_7_group0_3_5 + y_11_7_group1_3_5 <= 1
 OneGrouping_11_7_3_6: y_11_7_group0_3_6 + y_11_7_group1_3_6 <= 1
 OneGrouping_11_7_4_1: y_11_7_group0_4_1 + y_11_7_group1_4_1 <= 1
 OneGrouping_11_7_4_2: y_11_7_group0_4_2 + y_11_7_group1_4_2 <= 1
 OneGrouping_11_7_4_3: y_11_7_group0_4_3 + y_11_7_group1_4_3 <= 1
 OneGrouping_11_7_4_4: y_11_7_group0_4_4 + y_11_7_group1_4_4 <= 1
 OneGrouping_11_7_4_5: y_11_7_group0_4_5 + y_11_7_group1_4_5 <= 1
 OneGrouping_11_7_4_6: y_11_7_group0_4_6 + y_11_7_group1_4_6 <= 1
 OneGrouping_11_7_5_1: y_11_7_group0_5_1 + y_11_7_group1_5_1 <= 1
 OneGrouping_11_7_5_2: y_11_7_group0_5_2 + y_11_7_group1_5_2 <= 1
 OneGrouping_11_7_5_3: y_11_7_group0_5_3 + y_11_7_group1_5_3 <= 1
 OneGrouping_11_7_5_4: y_11_7_group0_5_4 + y_11_7_group1_5_4 <= 1
 OneGrouping_11_7_5_5: y_11_7_group0_5_5 + y_11_7_group1_5_5 <= 1
 OneGrouping_11_7_5_6: y_11_7_group0_5_6 + y_11_7_group1_5_6 <= 1
 Link_Mr_Smith_11_7_FullClass_1_1: x_Mr_Smith_11_7_FullClass_Math_Room_101_1_1
                                   - y_11_7_group0_1_1 = 0
 Link_Mr_Smith_11_7_FullClass_1_2: x_Mr_Smith_11_7_FullClass_Math_Room_101_1_2
                                   - y_11_7_group0_1_2 = 0
 Link_Mr_Smith_11_7_FullClass_1_3: x_Mr_Smith_11_7_FullClass_Math_Room_101_1_3
                                   - y_11_7_group0_1_3 = 0
 Link_Mr_Smith_11_7_FullClass_1_4: x_Mr_Smith_11_7_FullClass_Math_Room_101_1_4
                                   - y_11_7_group0_1_4 = 0
 Link_Mr_Smith_11_7_FullClass_1_5: x_Mr_Smith_11_7_FullClass_Math_Room_101_1_5
                                   - y_11_7_group0_1_5 = 0
 Link_Mr_Smith_11_7_FullClass_1_6: x_Mr_Smith_11_7_FullClass_Math_Room_101_1_6
                                   - y_11_7_group0_1_6 = 0
 Link_Mr_Smith_11_7_FullClass_2_1: x_Mr_Smith_11_7_FullClass_Math_Room_101_2_1
                                   - y_11_7_group0_2_1 = 0
 Link_Mr_Smith_11_7_FullClass_2_2: x_Mr_Smith_11_7_FullClass_Math_Room_101_2_2
                                   - y_11_7_group0_2_2 = 0
 Link_Mr_Smith_11_7_FullClass_2_3: x_Mr_Smith_11_7_FullClass_Math_Room_101_2_3
                                   - y_11_7_group0_2_3 = 0
 Link_Mr_Smith_11_7_FullClass_2_4: x_Mr_Smith_11_7_FullClass_Math_Room_101_2_4
                                   - y_11_7_group0_2_4 = 0
 Link_Mr_Smith_11_7_FullClass_2_5: x_Mr_Smith_11_7_FullClass_Math_Room_101_2_5
                                   - y_11_7_group0_2_5 = 0
 Link_Mr_Smith_11_7_FullClass_2_6: x_Mr_Smith_11_7_FullClass_Math_Room_101_2_6
                                   - y_11_7_group0_2_6 = 0
 Link_Mr_Smith_11_7_FullClass_3_1: x_Mr_Smith_11_7_FullClass_Math_Room_101_3_1
                                   - y_11_7_group0_3_1 = 0
 Link_Mr_Smith_11_7_FullClass_3_2: x_Mr_Smith_11_7_FullClass_Math_Room_101_3_2
                                   - y_11_7_group0_3_2 = 0
 Link_Mr_Smith_11_7_FullClass_3_3: x_Mr_Smith_11_7_FullClass_Math_Room_101_3_3
                                   - y_11_7_group0_3_3 = 0
 Link_Mr_Smith_11_7_FullClass_3_4: x_Mr_Smith_11_7_FullClass_Math_Room_101_3_4
                                   - y_11_7_group0_3_4 = 0
 Link_Mr_Smith_11_7_FullClass_3_5: x_Mr_Smith_11_7_FullClass_Math_Room_101_3_5
                                   - y_11_7_group0_3_5 = 0
 Link_Mr_Smith_11_7_FullClass_3_6: x_Mr_Smith_11_7_FullClass_Math_Room_101_3_6
                                   - y_11_7_group0_3_6 = 0
 Link_Mr_Smith_11_7_FullClass_4_1: x_Mr_Smith_11_7_FullClass_Math_Room_101_4_1
                                   - y_11_7_group0_4_1 = 0
 Link_Mr_Smith_11_7_FullClass_4_2: x_Mr_Smith_11_7_FullClass_Math_Room_101_4_2
                                   - y_11_7_group0_4_2 = 0
 Link_Mr_Smith_11_7_FullClass_4_3: x_Mr_Smith_11_7_FullClass_Math_Room_101_4_3
                                   - y_11_7_group0_4_3 = 0
 Link_Mr_Smith_11_7_FullClass_4_4: x_Mr_Smith_11_7_FullClass_Math_Room_101_4_4
                                   - y_11_7_group0_4_4 = 0
 Link_Mr_Smith_11_7_FullClass_4_5: x_Mr_Smith_11_7_FullClass_Math_Room_101_4_5
                                   - y_11_7_group0_4_5 = 0
 Link_Mr_Smith_11_7_FullClass_4_6: x_Mr_Smith_11_7_FullClass_Math_Room_101_4_6
                                   - y_11_7_group0_4_6 = 0
 Link_Mr_Smith_11_7_FullClass_5_1: x_Mr_Smith_11_7_FullClass_Math_Room_101_5_1
                                   - y_11_7_group0_5_1 = 0
 Link_Mr_Smith_11_7_FullClass_5_2: x_Mr_Smith_11_7_FullClass_Math_Room_101_5_2
                                   - y_11_7_group0_5_2 = 0
 Link_Mr_Smith_11_7_FullClass_5_3: x_Mr_Smith_11_7_FullClass_Math_Room_101_5_3
                                   - y_11_7_group0_5_3 = 0
 Link_Mr_Smith_11_7_FullClass_5_4: x_Mr_Smith_11_7_FullClass_Math_Room_101_5_4
                                   - y_11_7_group0_5_4 = 0
 Link_Mr_Smith_11_7_FullClass_5_5: x_Mr_Smith_11_7_FullClass_Math_Room_101_5_5
                                   - y_11_7_group0_5_5 = 0
 Link_Mr_Smith_11_7_FullClass_5_6: x_Mr_Smith_11_7_FullClass_Math_Room_101_5_6
                                   - y_11_7_group0_5_6 = 0
 Link_Mr_Smith_11_7_FullClass_1_1#60:
                                      x_Mr_Smith_11_7_FullClass_Math_Room_102_1_1
                                      - y_11_7_group0_1_1 = 0
 Link_Mr_Smith_11_7_FullClass_1_2#61:
                                      x_Mr_Smith_11_7_FullClass_Math_Room_102_1_2
                                      - y_11_7_group0_1_2 = 0
 Link_Mr_Smith_11_7_FullClass_1_3#62:
                                      x_Mr_Smith_11_7_FullClass_Math_Room_102_1_3
                                      - y_11_7_group0_1_3 = 0
 Link_Mr_Smith_11_7_FullClass_1_4#63:
                                      x_Mr_Smith_11_7_FullClass_Math_Room_102_1_4
                                      - y_11_7_group0_1_4 = 0
 Link_Mr_Smith_11_7_FullClass_1_5#64:
                                      x_Mr_Smith_11_7_FullClass_Math_Room_102_1_5
                                      - y_11_7_group0_1_5 = 0
 Link_Mr_Smith_11_7_FullClass_1_6#65:
                                      x_Mr_Smith_11_7_FullClass_Math_Room_102_1_6
                                      - y_11_7_group0_1_6 = 0
 Link_Mr_Smith_11_7_FullClass_2_1#66:
                                      x_Mr_Smith_11_7_FullClass_Math_Room_102_2_1
                                      - y_11_7_group0_2_1 = 0
 Link_Mr_Smith_11_7_FullClass_2_2#67:
                                      x_Mr_Smith_11_7_FullClass_Math_Room_102_2_2
                                      - y_11_7_group0_2_2 = 0
 Link_Mr_Smith_11_7_FullClass_2_3#68:
                                      x_Mr_Smith_11_7_FullClass_Math_Room_102_2_3
                                      - y_11_7_group0_2_3 = 0
 Link_Mr_Smith_11_7_FullClass_2_4#69:
                                      x_Mr_Smith_11_7_FullClass_Math_Room_102_2_4
                                      - y_11_7_group0_2_4 = 0
 Link_Mr_Smith_11_7_FullClass_2_5#70:
                                      x_Mr_Smith_11_7_FullClass_Math_Room_102_2_5
                                      - y_11_7_group0_2_5 = 0
 Link_Mr_Smith_11_7_FullClass_2_6#71:
                                      x_Mr_Smith_11_7_FullClass_Math_Room_102_2_6
                                      - y_11_7_group0_2_6 = 0
 Link_Mr_Smith_11_7_FullClass_3_1#72:
                                      x_Mr_Smith_11_7_FullClass_Math_Room_102_3_1
                                      - y_11_7_group0_3_1 = 0
 Link_Mr_Smith_11_7_FullClass_3_2#73:
                                      x_Mr_Smith_11_7_FullClass_Math_Room_102_3_2
                                      - y_11_7_group0_3_2 = 0
 Link_Mr_Smith_11_7_FullClass_3_3#74:
                                      x_Mr_Smith_11_7_FullClass_Math_Room_102_3_3
                                      - y_11_7_group0_3_3 = 0
 Link_Mr_Smith_11_7_FullClass_3_4#75:
                                      x_Mr_Smith_11_7_FullClass_Math_Room_102_3_4
                                      - y_11_7_group0_3_4 = 0
 Link_Mr_Smith_11_7_FullClass_3_5#76:
                                      x_Mr_Smith_11_7_FullClass_Math_Room_102_3_5
                                      - y_11_7_group0_3_5 = 0
 Link_Mr_Smith_11_7_FullClass_3_6#77:
                                      x_Mr_Smith_11_7_FullClass_Math_Room_102_3_6
                                      - y_11_7_group0_3_6 = 0
 Link_Mr_Smith_11_7_FullClass_4_1#78:
                                      x_Mr_Smith_11_7_FullClass_Math_Room_102_4_1
                                      - y_11_7_group0_4_1 = 0
 Link_Mr_Smith_11_7_FullClass_4_2#79:
                                      x_Mr_Smith_11_7_FullClass_Math_Room_102_4_2
                                      - y_11_7_group0_4_2 = 0
 Link_Mr_Smith_11_7_FullClass_4_3#80:
                                      x_Mr_Smith_11_7_FullClass_Math_Room_102_4_3
                                      - y_11_7_group0_4_3 = 0
 Link_Mr_Smith_11_7_FullClass_4_4#81:
                                      x_Mr_Smith_11_7_FullClass_Math_Room_102_4_4
                                      - y_11_7_group0_4_4 = 0
 Link_Mr_Smith_11_7_FullClass_4_5#82:
                                      x_Mr_Smith_11_7_FullClass_Math_Room_102_4_5
                                      - y_11_7_group0_4_5 = 0
 Link_Mr_Smith_11_7_FullClass_4_6#83:
                                      x_Mr_Smith_11_7_FullClass_Math_Room_102_4_6
                                      - y_11_7_group0_4_6 = 0
 Link_Mr_Smith_11_7_FullClass_5_1#84:
                                      x_Mr_Smith_11_7_FullClass_Math_Room_102_5_1
                                      - y_11_7_group0_5_1 = 0
 Link_Mr_Smith_11_7_FullClass_5_2#85:
                                      x_Mr_Smith_11_7_FullClass_Math_Room_102_5_2
                                      - y_11_7_group0_5_2 = 0
 Link_Mr_Smith_11_7_FullClass_5_3#86:
                                      x_Mr_Smith_11_7_FullClass_Math_Room_102_5_3
                                      - y_11_7_group0_5_3 = 0
 Link_Mr_Smith_11_7_FullClass_5_4#87:
                                      x_Mr_Smith_11_7_FullClass_Math_Room_102_5_4
                                      - y_11_7_group0_5_4 = 0
 Link_Mr_Smith_11_7_FullClass_5_5#88:
                                      x_Mr_Smith_11_7_FullClass_Math_Room_102_5_5
                                      - y_11_7_group0_5_5 = 0
 Link_Mr_Smith_11_7_FullClass_5_6#89:
                                      x_Mr_Smith_11_7_FullClass_Math_Room_102_5_6
                                      - y_11_7_group0_5_6 = 0
 Link_Ms_Johnson_11_7_PhysicsGroup1_1_1:
                                         x_Ms_Johnson_11_7_PhysicsGroup1_Physics_Room_101_1_1
                                         - y_11_7_group1_1_1 <= 0
 Link_Ms_Johnson_11_7_PhysicsGroup1_1_2:
                                         x_Ms_Johnson_11_7_PhysicsGroup1_Physics_Room_101_1_2
                                         - y_11_7_group1_1_2 <= 0
 Link_Ms_Johnson_11_7_PhysicsGroup1_1_3:
                                         x_Ms_Johnson_11_7_PhysicsGroup1_Physics_Room_101_1_3
                                         - y_11_7_group1_1_3 <= 0
 Link_Ms_Johnson_11_7_PhysicsGroup1_1_4:
                                         x_Ms_Johnson_11_7_PhysicsGroup1_Physics_Room_101_1_4
                                         - y_11_7_group1_1_4 <= 0
 Link_Ms_Johnson_11_7_PhysicsGroup1_1_5:
                                         x_Ms_Johnson_11_7_PhysicsGroup1_Physics_Room_101_1_5
                                         - y_11_7_group1_1_5 <= 0
 Link_Ms_Johnson_11_7_PhysicsGroup1_1_6:
                                         x_Ms_Johnson_11_7_PhysicsGroup1_Physics_Room_101_1_6
                                         - y_11_7_group1_1_6 <= 0
 Link_Ms_Johnson_11_7_PhysicsGroup1_2_1:
                                         x_Ms_Johnson_11_7_PhysicsGroup1_Physics_Room_101_2_1
                                         - y_11_7_group1_2_1 <= 0
 Link_Ms_Johnson_11_7_PhysicsGroup1_2_2:
                                         x_Ms_Johnson_11_7_PhysicsGroup1_Physics_Room_101_2_2
                                         - y_11_7_group1_2_2 <= 0
 Link_Ms_Johnson_11_7_PhysicsGroup1_2_3:
                                         x_Ms_Johnson_11_7_PhysicsGroup1_Physics_Room_101_2_3
                                         - y_11_7_group1_2_3 <= 0
 Link_Ms_Johnson_11_7_PhysicsGroup1_2_4:
                                         x_Ms_Johnson_11_7_PhysicsGroup1_Physics_Room_101_2_4
                                         - y_11_7_group1_2_4 <= 0
 Link_Ms_Johnson_11_7_PhysicsGroup1_2_5:
                                         x_Ms_Johnson_11_7_PhysicsGroup1_Physics_Room_101_2_5
                                         - y_11_7_group1_2_5 <= 0
 Link_Ms_Johnson_11_7_PhysicsGroup1_2_6:
                                         x_Ms_Johnson_11_7_PhysicsGroup1_Physics_Room_101_2_6
                                         - y_11_7_group1_2_6 <= 0
 Link_Ms_Johnson_11_7_PhysicsGroup1_3_1:
                                         x_Ms_Johnson_11_7_PhysicsGroup1_Physics_Room_101_3_1
                                         - y_11_7_group1_3_1 <= 0
 Link_Ms_Johnson_11_7_PhysicsGroup1_3_2:
                                         x_Ms_Johnson_11_7_PhysicsGroup1_Physics_Room_101_3_2
                                         - y_11_7_group1_3_2 <= 0
 Link_Ms_Johnson_11_7_PhysicsGroup1_3_3:
                                         x_Ms_Johnson_11_7_PhysicsGroup1_Physics_Room_101_3_3
                                         - y_11_7_group1_3_3 <= 0
 Link_Ms_Johnson_11_7_PhysicsGroup1_3_4:
                                         x_Ms_Johnson_11_7_PhysicsGroup1_Physics_Room_101_3_4
                                         - y_11_7_group1_3_4 <= 0
 Link_Ms_Johnson_11_7_PhysicsGroup1_3_5:
                                         x_Ms_Johnson_11_7_PhysicsGroup1_Physics_Room_101_3_5
                                         - y_11_7_group1_3_5 <= 0
 Link_Ms_Johnson_11_7_PhysicsGroup1_3_6:
                                         x_Ms_Johnson_11_7_PhysicsGroup1_Physics_Room_101_3_6
                                         - y_11_7_group1_3_6 <= 0
 Link_Ms_Johnson_11_7_PhysicsGroup1_4_1:
                                         x_Ms_Johnson_11_7_PhysicsGroup1_Physics_Room_101_4_1
                                         - y_11_7_group1_4_1 <= 0
 Link_Ms_Johnson_11_7_PhysicsGroup1_4_2:
                                         x_Ms_Johnson_11_7_PhysicsGroup1_Physics_Room_101_4_2
                                         - y_11_7_group1_4_2 <= 0
 Link_Ms_Johnson_11_7_PhysicsGroup1_4_3:
                                         x_Ms_Johnson_11_7_PhysicsGroup1_Physics_Room_101_4_3
                                         - y_11_7_group1_4_3 <= 0
 Link_Ms_Johnson_11_7_PhysicsGroup1_4_4:
                                         x_Ms_Johnson_11_7_PhysicsGroup1_Physics_Room_101_4_4
                                         - y_11_7_group1_4_4 <= 0
 Link_Ms_Johnson_11_7_PhysicsGroup1_4_5:
                                         x_Ms_Johnson_11_7_PhysicsGroup1_Physics_Room_101_4_5
                                         - y_11_7_group1_4_5 <= 0
 Link_Ms_Johnson_11_7_PhysicsGroup1_4_6:
                                         x_Ms_Johnson_11_7_PhysicsGroup1_Physics_Room_101_4_6
                                         - y_11_7_group1_4_6 <= 0
 Link_Ms_Johnson_11_7_PhysicsGroup1_5_1:
                                         x_Ms_Johnson_11_7_PhysicsGroup1_Physics_Room_101_5_1
                                         - y_11_7_group1_5_1 <= 0
 Link_Ms_Johnson_11_7_PhysicsGroup1_5_2:
                                         x_Ms_Johnson_11_7_PhysicsGroup1_Physics_Room_101_5_2
                                         - y_11_7_group1_5_2 <= 0
 Link_Ms_Johnson_11_7_PhysicsGroup1_5_3:
                                         x_Ms_Johnson_11_7_PhysicsGroup1_Physics_Room_101_5_3
                                         - y_11_7_group1_5_3 <= 0
 Link_Ms_Johnson_11_7_PhysicsGroup1_5_4:
                                         x_Ms_Johnson_11_7_PhysicsGroup1_Physics_Room_101_5_4
                                         - y_11_7_group1_5_4 <= 0
 Link_Ms_Johnson_11_7_PhysicsGroup1_5_5:
                                         x_Ms_Johnson_11_7_PhysicsGroup1_Physics_Room_101_5_5
                                         - y_11_7_group1_5_5 <= 0
 Link_Ms_Johnson_11_7_PhysicsGroup1_5_6:
                                         x_Ms_Johnson_11_7_PhysicsGroup1_Physics_Room_101_5_6
                                         - y_11_7_group1_5_6 <= 0
 Link_Mr_Lee_11_7_PhysicsGroup2_1_1:
                                     x_Mr_Lee_11_7_PhysicsGroup2_Physics_Room_102_1_1
                                     - y_11_7_group1_1_1 <= 0
 Link_Mr_Lee_11_7_PhysicsGroup2_1_2:
                                     x_Mr_Lee_11_7_PhysicsGroup2_Physics_Room_102_1_2
                                     - y_11_7_group1_1_2 <= 0
 Link_Mr_Lee_11_7_PhysicsGroup2_1_3:
                                     x_Mr_Lee_11_7_PhysicsGroup2_Physics_Room_102_1_3
                                     - y_11_7_group1_1_3 <= 0
 Link_Mr_Lee_11_7_PhysicsGroup2_1_4:
                                     x_Mr_Lee_11_7_PhysicsGroup2_Physics_Room_102_1_4
                                     - y_11_7_group1_1_4 <= 0
 Link_Mr_Lee_11_7_PhysicsGroup2_1_5:
                                     x_Mr_Lee_11_7_PhysicsGroup2_Physics_Room_102_1_5
                                     - y_11_7_group1_1_5 <= 0
 Link_Mr_Lee_11_7_PhysicsGroup2_1_6:
                                     x_Mr_Lee_11_7_PhysicsGroup2_Physics_Room_102_1_6
                                     - y_11_7_group1_1_6 <= 0
 Link_Mr_Lee_11_7_PhysicsGroup2_2_1:
                                     x_Mr_Lee_11_7_PhysicsGroup2_Physics_Room_102_2_1
                                     - y_11_7_group1_2_1 <= 0
 Link_Mr_Lee_11_7_PhysicsGroup2_2_2:
                                     x_Mr_Lee_11_7_PhysicsGroup2_Physics_Room_102_2_2
                                     - y_11_7_group1_2_2 <= 0
 Link_Mr_Lee_11_7_PhysicsGroup2_2_3:
                                     x_Mr_Lee_11_7_PhysicsGroup2_Physics_Room_102_2_3
                                     - y_11_7_group1_2_3 <= 0
 Link_Mr_Lee_11_7_PhysicsGroup2_2_4:
                                     x_Mr_Lee_11_7_PhysicsGroup2_Physics_Room_102_2_4
                                     - y_11_7_group1_2_4 <= 0
 Link_Mr_Lee_11_7_PhysicsGroup2_2_5:
                                     x_Mr_Lee_11_7_PhysicsGroup2_Physics_Room_102_2_5
                                     - y_11_7_group1_2_5 <= 0
 Link_Mr_Lee_11_7_PhysicsGroup2_2_6:
                                     x_Mr_Lee_11_7_PhysicsGroup2_Physics_Room_102_2_6
                                     - y_11_7_group1_2_6 <= 0
 Link_Mr_Lee_11_7_PhysicsGroup2_3_1:
                                     x_Mr_Lee_11_7_PhysicsGroup2_Physics_Room_102_3_1
                                     - y_11_7_group1_3_1 <= 0
 Link_Mr_Lee_11_7_PhysicsGroup2_3_2:
                                     x_Mr_Lee_11_7_PhysicsGroup2_Physics_Room_102_3_2
                                     - y_11_7_group1_3_2 <= 0
 Link_Mr_Lee_11_7_PhysicsGroup2_3_3:
                                     x_Mr_Lee_11_7_PhysicsGroup2_Physics_Room_102_3_3
                                     - y_11_7_group1_3_3 <= 0
 Link_Mr_Lee_11_7_PhysicsGroup2_3_4:
                                     x_Mr_Lee_11_7_PhysicsGroup2_Physics_Room_102_3_4
                                     - y_11_7_group1_3_4 <= 0
 Link_Mr_Lee_11_7_PhysicsGroup2_3_5:
                                     x_Mr_Lee_11_7_PhysicsGroup2_Physics_Room_102_3_5
                                     - y_11_7_group1_3_5 <= 0
 Link_Mr_Lee_11_7_PhysicsGroup2_3_6:
                                     x_Mr_Lee_11_7_PhysicsGroup2_Physics_Room_102_3_6
                                     - y_11_7_group1_3_6 <= 0
 Link_Mr_Lee_11_7_PhysicsGroup2_4_1:
                                     x_Mr_Lee_11_7_PhysicsGroup2_Physics_Room_102_4_1
                                     - y_11_7_group1_4_1 <= 0
 Link_Mr_Lee_11_7_PhysicsGroup2_4_2:
                                     x_Mr_Lee_11_7_PhysicsGroup2_Physics_Room_102_4_2
                                     - y_11_7_group1_4_2 <= 0
 Link_Mr_Lee_11_7_PhysicsGroup2_4_3:
                                     x_Mr_Lee_11_7_PhysicsGroup2_Physics_Room_102_4_3
                                     - y_11_7_group1_4_3 <= 0
 Link_Mr_Lee_11_7_PhysicsGroup2_4_4:
                                     x_Mr_Lee_11_7_PhysicsGroup2_Physics_Room_102_4_4
                                     - y_11_7_group1_4_4 <= 0
 Link_Mr_Lee_11_7_PhysicsGroup2_4_5:
                                     x_Mr_Lee_11_7_PhysicsGroup2_Physics_Room_102_4_5
                                     - y_11_7_group1_4_5 <= 0
 Link_Mr_Lee_11_7_PhysicsGroup2_4_6:
                                     x_Mr_Lee_11_7_PhysicsGroup2_Physics_Room_102_4_6
                                     - y_11_7_group1_4_6 <= 0
 Link_Mr_Lee_11_7_PhysicsGroup2_5_1:
                                     x_Mr_Lee_11_7_PhysicsGroup2_Physics_Room_102_5_1
                                     - y_11_7_group1_5_1 <= 0
 Link_Mr_Lee_11_7_PhysicsGroup2_5_2:
                                     x_Mr_Lee_11_7_PhysicsGroup2_Physics_Room_102_5_2
                                     - y_11_7_group1_5_2 <= 0
 Link_Mr_Lee_11_7_PhysicsGroup2_5_3:
                                     x_Mr_Lee_11_7_PhysicsGroup2_Physics_Room_102_5_3
                                     - y_11_7_group1_5_3 <= 0
 Link_Mr_Lee_11_7_PhysicsGroup2_5_4:
                                     x_Mr_Lee_11_7_PhysicsGroup2_Physics_Room_102_5_4
                                     - y_11_7_group1_5_4 <= 0
 Link_Mr_Lee_11_7_PhysicsGroup2_5_5:
                                     x_Mr_Lee_11_7_PhysicsGroup2_Physics_Room_102_5_5
                                     - y_11_7_group1_5_5 <= 0
 Link_Mr_Lee_11_7_PhysicsGroup2_5_6:
                                     x_Mr_Lee_11_7_PhysicsGroup2_Physics_Room_102_5_6
                                     - y_11_7_group1_5_6 <= 0
 Sync_11_7_1_1_1_0: x_Ms_Johnson_11_7_PhysicsGroup1_Physics_Room_101_1_1
                    - x_Mr_Lee_11_7_PhysicsGroup2_Physics_Room_102_1_1 = 0
 Sync_11_7_1_1_2_0: x_Ms_Johnson_11_7_PhysicsGroup1_Physics_Room_101_1_2
                    - x_Mr_Lee_11_7_PhysicsGroup2_Physics_Room_102_1_2 = 0
 Sync_11_7_1_1_3_0: x_Ms_Johnson_11_7_PhysicsGroup1_Physics_Room_101_1_3
                    - x_Mr_Lee_11_7_PhysicsGroup2_Physics_Room_102_1_3 = 0
 Sync_11_7_1_1_4_0: x_Ms_Johnson_11_7_PhysicsGroup1_Physics_Room_101_1_4
                    - x_Mr_Lee_11_7_PhysicsGroup2_Physics_Room_102_1_4 = 0
 Sync_11_7_1_1_5_0: x_Ms_Johnson_11_7_PhysicsGroup1_Physics_Room_101_1_5
                    - x_Mr_Lee_11_7_PhysicsGroup2_Physics_Room_102_1_5 = 0
 Sync_11_7_1_1_6_0: x_Ms_Johnson_11_7_PhysicsGroup1_Physics_Room_101_1_6
                    - x_Mr_Lee_11_7_PhysicsGroup2_Physics_Room_102_1_6 = 0
 Sync_11_7_1_2_1_0: x_Ms_Johnson_11_7_PhysicsGroup1_Physics_Room_101_2_1
                    - x_Mr_Lee_11_7_PhysicsGroup2_Physics_Room_102_2_1 = 0
 Sync_11_7_1_2_2_0: x_Ms_Johnson_11_7_PhysicsGroup1_Physics_Room_101_2_2
                    - x_Mr_Lee_11_7_PhysicsGroup2_Physics_Room_102_2_2 = 0
 Sync_11_7_1_2_3_0: x_Ms_Johnson_11_7_PhysicsGroup1_Physics_Room_101_2_3
                    - x_Mr_Lee_11_7_PhysicsGroup2_Physics_Room_102_2_3 = 0
 Sync_11_7_1_2_4_0: x_Ms_Johnson_11_7_PhysicsGroup1_Physics_Room_101_2_4
                    - x_Mr_Lee_11_7_PhysicsGroup2_Physics_Room_102_2_4 = 0
 Sync_11_7_1_2_5_0: x_Ms_Johnson_11_7_PhysicsGroup1_Physics_Room_101_2_5
                    - x_Mr_Lee_11_7_PhysicsGroup2_Physics_Room_102_2_5 = 0
 Sync_11_7_1_2_6_0: x_Ms_Johnson_11_7_PhysicsGroup1_Physics_Room_101_2_6
                    - x_Mr_Lee_11_7_PhysicsGroup2_Physics_Room_102_2_6 = 0
 Sync_11_7_1_3_1_0: x_Ms_Johnson_11_7_PhysicsGroup1_Physics_Room_101_3_1
                    - x_Mr_Lee_11_7_PhysicsGroup2_Physics_Room_102_3_1 = 0
 Sync_11_7_1_3_2_0: x_Ms_Johnson_11_7_PhysicsGroup1_Physics_Room_101_3_2
                    - x_Mr_Lee_11_7_PhysicsGroup2_Physics_Room_102_3_2 = 0
 Sync_11_7_1_3_3_0: x_Ms_Johnson_11_7_PhysicsGroup1_Physics_Room_101_3_3
                    - x_Mr_Lee_11_7_PhysicsGroup2_Physics_Room_102_3_3 = 0
 Sync_11_7_1_3_4_0: x_Ms_Johnson_11_7_PhysicsGroup1_Physics_Room_101_3_4
                    - x_Mr_Lee_11_7_PhysicsGroup2_Physics_Room_102_3_4 = 0
 Sync_11_7_1_3_5_0: x_Ms_Johnson_11_7_PhysicsGroup1_Physics_Room_101_3_5
                    - x_Mr_Lee_11_7_PhysicsGroup2_Physics_Room_102_3_5 = 0
 Sync_11_7_1_3_6_0: x_Ms_Johnson_11_7_PhysicsGroup1_Physics_Room_101_3_6
                    - x_Mr_Lee_11_7_PhysicsGroup2_Physics_Room_102_3_6 = 0
 Sync_11_7_1_4_1_0: x_Ms_Johnson_11_7_PhysicsGroup1_Physics_Room_101_4_1
                    - x_Mr_Lee_11_7_PhysicsGroup2_Physics_Room_102_4_1 = 0
 Sync_11_7_1_4_2_0: x_Ms_Johnson_11_7_PhysicsGroup1_Physics_Room_101_4_2
                    - x_Mr_Lee_11_7_PhysicsGroup2_Physics_Room_102_4_2 = 0
 Sync_11_7_1_4_3_0: x_Ms_Johnson_11_7_PhysicsGroup1_Physics_Room_101_4_3
                    - x_Mr_Lee_11_7_PhysicsGroup2_Physics_Room_102_4_3 = 0
 Sync_11_7_1_4_4_0: x_Ms_Johnson_11_7_PhysicsGroup1_Physics_Room_101_4_4
                    - x_Mr_Lee_11_7_PhysicsGroup2_Physics_Room_102_4_4 = 0
 Sync_11_7_1_4_5_0: x_Ms_Johnson_11_7_PhysicsGroup1_Physics_Room_101_4_5
                    - x_Mr_Lee_11_7_PhysicsGroup2_Physics_Room_102_4_5 = 0
 Sync_11_7_1_4_6_0: x_Ms_Johnson_11_7_PhysicsGroup1_Physics_Room_101_4_6
                    - x_Mr_Lee_11_7_PhysicsGroup2_Physics_Room_102_4_6 = 0
 Sync_11_7_1_5_1_0: x_Ms_Johnson_11_7_PhysicsGroup1_Physics_Room_101_5_1
                    - x_Mr_Lee_11_7_PhysicsGroup2_Physics_Room_102_5_1 = 0
 Sync_11_7_1_5_2_0: x_Ms_Johnson_11_7_PhysicsGroup1_Physics_Room_101_5_2
                    - x_Mr_Lee_11_7_PhysicsGroup2_Physics_Room_102_5_2 = 0
 Sync_11_7_1_5_3_0: x_Ms_Johnson_11_7_PhysicsGroup1_Physics_Room_101_5_3
                    - x_Mr_Lee_11_7_PhysicsGroup2_Physics_Room_102_5_3 = 0
 Sync_11_7_1_5_4_0: x_Ms_Johnson_11_7_PhysicsGroup1_Physics_Room_101_5_4
                    - x_Mr_Lee_11_7_PhysicsGroup2_Physics_Room_102_5_4 = 0
 Sync_11_7_1_5_5_0: x_Ms_Johnson_11_7_PhysicsGroup1_Physics_Room_101_5_5
                    - x_Mr_Lee_11_7_PhysicsGroup2_Physics_Room_102_5_5 = 0
 Sync_11_7_1_5_6_0: x_Ms_Johnson_11_7_PhysicsGroup1_Physics_Room_101_5_6
                    - x_Mr_Lee_11_7_PhysicsGroup2_Physics_Room_102_5_6 = 0
 TeacherAvailability_Mr_Smith_1_1: x_Mr_Smith_11_7_FullClass_Math_Room_101_1_1
                                   + x_Mr_Smith_11_7_FullClass_Math_Room_102_1_1
                                    <= 1
 TeacherAvailability_Mr_Smith_1_2: x_Mr_Smith_11_7_FullClass_Math_Room_101_1_2
                                   + x_Mr_Smith_11_7_FullClass_Math_Room_102_1_2
                                    <= 1
 TeacherAvailability_Mr_Smith_1_3: x_Mr_Smith_11_7_FullClass_Math_Room_101_1_3
                                   + x_Mr_Smith_11_7_FullClass_Math_Room_102_1_3
                                    <= 1
 TeacherAvailability_Mr_Smith_1_4: x_Mr_Smith_11_7_FullClass_Math_Room_101_1_4
                                   + x_Mr_Smith_11_7_FullClass_Math_Room_102_1_4
                                    <= 1
 TeacherAvailability_Mr_Smith_1_5: x_Mr_Smith_11_7_FullClass_Math_Room_101_1_5
                                   + x_Mr_Smith_11_7_FullClass_Math_Room_102_1_5
                                    <= 1
 TeacherAvailability_Mr_Smith_1_6: x_Mr_Smith_11_7_FullClass_Math_Room_101_1_6
                                   + x_Mr_Smith_11_7_FullClass_Math_Room_102_1_6
                                    <= 1
 TeacherAvailability_Mr_Smith_2_1: x_Mr_Smith_11_7_FullClass_Math_Room_101_2_1
                                   + x_Mr_Smith_11_7_FullClass_Math_Room_102_2_1
                                    <= 1
 TeacherAvailability_Mr_Smith_2_2: x_Mr_Smith_11_7_FullClass_Math_Room_101_2_2
                                   + x_Mr_Smith_11_7_FullClass_Math_Room_102_2_2
                                    <= 1
 TeacherAvailability_Mr_Smith_2_3: x_Mr_Smith_11_7_FullClass_Math_Room_101_2_3
                                   + x_Mr_Smith_11_7_FullClass_Math_Room_102_2_3
                                    <= 1
 TeacherAvailability_Mr_Smith_2_4: x_Mr_Smith_11_7_FullClass_Math_Room_101_2_4
                                   + x_Mr_Smith_11_7_FullClass_Math_Room_102_2_4
                                    <= 1
 TeacherAvailability_Mr_Smith_2_5: x_Mr_Smith_11_7_FullClass_Math_Room_101_2_5
                                   + x_Mr_Smith_11_7_FullClass_Math_Room_102_2_5
                                    <= 1
 TeacherAvailability_Mr_Smith_2_6: x_Mr_Smith_11_7_FullClass_Math_Room_101_2_6
                                   + x_Mr_Smith_11_7_FullClass_Math_Room_102_2_6
                                    <= 1
 TeacherAvailability_Mr_Smith_3_1: x_Mr_Smith_11_7_FullClass_Math_Room_101_3_1
                                   + x_Mr_Smith_11_7_FullClass_Math_Room_102_3_1
                                    <= 1
 TeacherAvailability_Mr_Smith_3_2: x_Mr_Smith_11_7_FullClass_Math_Room_101_3_2
                                   + x_Mr_Smith_11_7_FullClass_Math_Room_102_3_2
                                    <= 1
 TeacherAvailability_Mr_Smith_3_3: x_Mr_Smith_11_7_FullClass_Math_Room_101_3_3
                                   + x_Mr_Smith_11_7_FullClass_Math_Room_102_3_3
                                    <= 1
 TeacherAvailability_Mr_Smith_3_4: x_Mr_Smith_11_7_FullClass_Math_Room_101_3_4
                                   + x_Mr_Smith_11_7_FullClass_Math_Room_102_3_4
                                    <= 1
 TeacherAvailability_Mr_Smith_3_5: x_Mr_Smith_11_7_FullClass_Math_Room_101_3_5
                                   + x_Mr_Smith_11_7_FullClass_Math_Room_102_3_5
                                    <= 1
 TeacherAvailability_Mr_Smith_3_6: x_Mr_Smith_11_7_FullClass_Math_Room_101_3_6
                                   + x_Mr_Smith_11_7_FullClass_Math_Room_102_3_6
                                    <= 1
 TeacherAvailability_Mr_Smith_4_1: x_Mr_Smith_11_7_FullClass_Math_Room_101_4_1
                                   + x_Mr_Smith_11_7_FullClass_Math_Room_102_4_1
                                    <= 1
 TeacherAvailability_Mr_Smith_4_2: x_Mr_Smith_11_7_FullClass_Math_Room_101_4_2
                                   + x_Mr_Smith_11_7_FullClass_Math_Room_102_4_2
                                    <= 1
 TeacherAvailability_Mr_Smith_4_3: x_Mr_Smith_11_7_FullClass_Math_Room_101_4_3
                                   + x_Mr_Smith_11_7_FullClass_Math_Room_102_4_3
                                    <= 1
 TeacherAvailability_Mr_Smith_4_4: x_Mr_Smith_11_7_FullClass_Math_Room_101_4_4
                                   + x_Mr_Smith_11_7_FullClass_Math_Room_102_4_4
                                    <= 1
 TeacherAvailability_Mr_Smith_4_5: x_Mr_Smith_11_7_FullClass_Math_Room_101_4_5
                                   + x_Mr_Smith_11_7_FullClass_Math_Room_102_4_5
                                    <= 1
 TeacherAvailability_Mr_Smith_4_6: x_Mr_Smith_11_7_FullClass_Math_Room_101_4_6
                                   + x_Mr_Smith_11_7_FullClass_Math_Room_102_4_6
                                    <= 1
 TeacherAvailability_Mr_Smith_5_1: x_Mr_Smith_11_7_FullClass_Math_Room_101_5_1
                                   + x_Mr_Smith_11_7_FullClass_Math_Room_102_5_1
                                    <= 1
 TeacherAvailability_Mr_Smith_5_2: x_Mr_Smith_11_7_FullClass_Math_Room_101_5_2
                                   + x_Mr_Smith_11_7_FullClass_Math_Room_102_5_2
                                    <= 1
 TeacherAvailability_Mr_Smith_5_3: x_Mr_Smith_11_7_FullClass_Math_Room_101_5_3
                                   + x_Mr_Smith_11_7_FullClass_Math_Room_102_5_3
                                    <= 1
 TeacherAvailability_Mr_Smith_5_4: x_Mr_Smith_11_7_FullClass_Math_Room_101_5_4
                                   + x_Mr_Smith_11_7_FullClass_Math_Room_102_5_4
                                    <= 1
 TeacherAvailability_Mr_Smith_5_5: x_Mr_Smith_11_7_FullClass_Math_Room_101_5_5
                                   + x_Mr_Smith_11_7_FullClass_Math_Room_102_5_5
                                    <= 1
 TeacherAvailability_Mr_Smith_5_6: x_Mr_Smith_11_7_FullClass_Math_Room_101_5_6
                                   + x_Mr_Smith_11_7_FullClass_Math_Room_102_5_6
                                    <= 1
 TeacherAvailability_Mr_Lee_1_1:
                                 x_Mr_Lee_11_7_PhysicsGroup2_Physics_Room_102_1_1
                                  <= 1
 TeacherAvailability_Mr_Lee_1_2:
                                 x_Mr_Lee_11_7_PhysicsGroup2_Physics_Room_102_1_2
                                  <= 1
 TeacherAvailability_Mr_Lee_1_3:
                                 x_Mr_Lee_11_7_PhysicsGroup2_Physics_Room_102_1_3
                                  <= 1
 TeacherAvailability_Mr_Lee_1_4:
                                 x_Mr_Lee_11_7_PhysicsGroup2_Physics_Room_102_1_4
                                  <= 1
 TeacherAvailability_Mr_Lee_1_5:
                                 x_Mr_Lee_11_7_PhysicsGroup2_Physics_Room_102_1_5
                                  <= 1
 TeacherAvailability_Mr_Lee_1_6:
                                 x_Mr_Lee_11_7_PhysicsGroup2_Physics_Room_102_1_6
                                  <= 1
 TeacherAvailability_Mr_Lee_2_1:
                                 x_Mr_Lee_11_7_PhysicsGroup2_Physics_Room_102_2_1
                                  <= 1
 TeacherAvailability_Mr_Lee_2_2:
                                 x_Mr_Lee_11_7_PhysicsGroup2_Physics_Room_102_2_2
                                  <= 1
 TeacherAvailability_Mr_Lee_2_3:
                                 x_Mr_Lee_11_7_PhysicsGroup2_Physics_Room_102_2_3
                                  <= 1
 TeacherAvailability_Mr_Lee_2_4:
                                 x_Mr_Lee_11_7_PhysicsGroup2_Physics_Room_102_2_4
                                  <= 1
 TeacherAvailability_Mr_Lee_2_5:
                                 x_Mr_Lee_11_7_PhysicsGroup2_Physics_Room_102_2_5
                                  <= 1
 TeacherAvailability_Mr_Lee_2_6:
                                 x_Mr_Lee_11_7_PhysicsGroup2_Physics_Room_102_2_6
                                  <= 1
 TeacherAvailability_Mr_Lee_3_1:
                                 x_Mr_Lee_11_7_PhysicsGroup2_Physics_Room_102_3_1
                                  <= 1
 TeacherAvailability_Mr_Lee_3_2:
                                 x_Mr_Lee_11_7_PhysicsGroup2_Physics_Room_102_3_2
                                  <= 1
 TeacherAvailability_Mr_Lee_3_3:
                                 x_Mr_Lee_11_7_PhysicsGroup2_Physics_Room_102_3_3
                                  <= 1
 TeacherAvailability_Mr_Lee_3_4:
                                 x_Mr_Lee_11_7_PhysicsGroup2_Physics_Room_102_3_4
                                  <= 1
 TeacherAvailability_Mr_Lee_3_5:
                                 x_Mr_Lee_11_7_PhysicsGroup2_Physics_Room_102_3_5
                                  <= 1
 TeacherAvailability_Mr_Lee_3_6:
                                 x_Mr_Lee_11_7_PhysicsGroup2_Physics_Room_102_3_6
                                  <= 1
 TeacherAvailability_Mr_Lee_4_1:
                                 x_Mr_Lee_11_7_PhysicsGroup2_Physics_Room_102_4_1
                                  <= 1
 TeacherAvailability_Mr_Lee_4_2:
                                 x_Mr_Lee_11_7_PhysicsGroup2_Physics_Room_102_4_2
                                  <= 1
 TeacherAvailability_Mr_Lee_4_3:
                                 x_Mr_Lee_11_7_PhysicsGroup2_Physics_Room_102_4_3
                                  <= 1
 TeacherAvailability_Mr_Lee_4_4:
                                 x_Mr_Lee_11_7_PhysicsGroup2_Physics_Room_102_4_4
                                  <= 1
 TeacherAvailability_Mr_Lee_4_5:
                                 x_Mr_Lee_11_7_PhysicsGroup2_Physics_Room_102_4_5
                                  <= 1
 TeacherAvailability_Mr_Lee_4_6:
                                 x_Mr_Lee_11_7_PhysicsGroup2_Physics_Room_102_4_6
                                  <= 1
 TeacherAvailability_Mr_Lee_5_1:
                                 x_Mr_Lee_11_7_PhysicsGroup2_Physics_Room_102_5_1
                                  <= 1
 TeacherAvailability_Mr_Lee_5_2:
                                 x_Mr_Lee_11_7_PhysicsGroup2_Physics_Room_102_5_2
                                  <= 1
 TeacherAvailability_Mr_Lee_5_3:
                                 x_Mr_Lee_11_7_PhysicsGroup2_Physics_Room_102_5_3
                                  <= 1
 TeacherAvailability_Mr_Lee_5_4:
                                 x_Mr_Lee_11_7_PhysicsGroup2_Physics_Room_102_5_4
                                  <= 1
 TeacherAvailability_Mr_Lee_5_5:
                                 x_Mr_Lee_11_7_PhysicsGroup2_Physics_Room_102_5_5
                                  <= 1
 TeacherAvailability_Mr_Lee_5_6:
                                 x_Mr_Lee_11_7_PhysicsGroup2_Physics_Room_102_5_6
                                  <= 1
 TeacherAvailability_Ms_Johnson_1_1:
                                     x_Ms_Johnson_11_7_PhysicsGroup1_Physics_Room_101_1_1
                                      <= 1
 TeacherAvailability_Ms_Johnson_1_2:
                                     x_Ms_Johnson_11_7_PhysicsGroup1_Physics_Room_101_1_2
                                      <= 1
 TeacherAvailability_Ms_Johnson_1_3:
                                     x_Ms_Johnson_11_7_PhysicsGroup1_Physics_Room_101_1_3
                                      <= 1
 TeacherAvailability_Ms_Johnson_1_4:
                                     x_Ms_Johnson_11_7_PhysicsGroup1_Physics_Room_101_1_4
                                      <= 1
 TeacherAvailability_Ms_Johnson_1_5:
                                     x_Ms_Johnson_11_7_PhysicsGroup1_Physics_Room_101_1_5
                                      <= 1
 TeacherAvailability_Ms_Johnson_1_6:
                                     x_Ms_Johnson_11_7_PhysicsGroup1_Physics_Room_101_1_6
                                      <= 1
 TeacherAvailability_Ms_Johnson_2_1:
                                     x_Ms_Johnson_11_7_PhysicsGroup1_Physics_Room_101_2_1
                                      <= 1
 TeacherAvailability_Ms_Johnson_2_2:
                                     x_Ms_Johnson_11_7_PhysicsGroup1_Physics_Room_101_2_2
                                      <= 1
 TeacherAvailability_Ms_Johnson_2_3:
                                     x_Ms_Johnson_11_7_PhysicsGroup1_Physics_Room_101_2_3
                                      <= 1
 TeacherAvailability_Ms_Johnson_2_4:
                                     x_Ms_Johnson_11_7_PhysicsGroup1_Physics_Room_101_2_4
                                      <= 1
 TeacherAvailability_Ms_Johnson_2_5:
                                     x_Ms_Johnson_11_7_PhysicsGroup1_Physics_Room_101_2_5
                                      <= 1
 TeacherAvailability_Ms_Johnson_2_6:
                                     x_Ms_Johnson_11_7_PhysicsGroup1_Physics_Room_101_2_6
                                      <= 1
 TeacherAvailability_Ms_Johnson_3_1:
                                     x_Ms_Johnson_11_7_PhysicsGroup1_Physics_Room_101_3_1
                                      <= 1
 TeacherAvailability_Ms_Johnson_3_2:
                                     x_Ms_Johnson_11_7_PhysicsGroup1_Physics_Room_101_3_2
                                      <= 1
 TeacherAvailability_Ms_Johnson_3_3:
                                     x_Ms_Johnson_11_7_PhysicsGroup1_Physics_Room_101_3_3
                                      <= 1
 TeacherAvailability_Ms_Johnson_3_4:
                                     x_Ms_Johnson_11_7_PhysicsGroup1_Physics_Room_101_3_4
                                      <= 1
 TeacherAvailability_Ms_Johnson_3_5:
                                     x_Ms_Johnson_11_7_PhysicsGroup1_Physics_Room_101_3_5
                                      <= 1
 TeacherAvailability_Ms_Johnson_3_6:
                                     x_Ms_Johnson_11_7_PhysicsGroup1_Physics_Room_101_3_6
                                      <= 1
 TeacherAvailability_Ms_Johnson_4_1:
                                     x_Ms_Johnson_11_7_PhysicsGroup1_Physics_Room_101_4_1
                                      <= 1
 TeacherAvailability_Ms_Johnson_4_2:
                                     x_Ms_Johnson_11_7_PhysicsGroup1_Physics_Room_101_4_2
                                      <= 1
 TeacherAvailability_Ms_Johnson_4_3:
                                     x_Ms_Johnson_11_7_PhysicsGroup1_Physics_Room_101_4_3
                                      <= 1
 TeacherAvailability_Ms_Johnson_4_4:
                                     x_Ms_Johnson_11_7_PhysicsGroup1_Physics_Room_101_4_4
                                      <= 1
 TeacherAvailability_Ms_Johnson_4_5:
                                     x_Ms_Johnson_11_7_PhysicsGroup1_Physics_Room_101_4_5
                                      <= 1
 TeacherAvailability_Ms_Johnson_4_6:
                                     x_Ms_Johnson_11_7_PhysicsGroup1_Physics_Room_101_4_6
                                      <= 1
 TeacherAvailability_Ms_Johnson_5_1:
                                     x_Ms_Johnson_11_7_PhysicsGroup1_Physics_Room_101_5_1
                                      <= 1
 TeacherAvailability_Ms_Johnson_5_2:
                                     x_Ms_Johnson_11_7_PhysicsGroup1_Physics_Room_101_5_2
                                      <= 1
 TeacherAvailability_Ms_Johnson_5_3:
                                     x_Ms_Johnson_11_7_PhysicsGroup1_Physics_Room_101_5_3
                                      <= 1
 TeacherAvailability_Ms_Johnson_5_4:
                                     x_Ms_Johnson_11_7_PhysicsGroup1_Physics_Room_101_5_4
                                      <= 1
 TeacherAvailability_Ms_Johnson_5_5:
                                     x_Ms_Johnson_11_7_PhysicsGroup1_Physics_Room_101_5_5
                                      <= 1
 TeacherAvailability_Ms_Johnson_5_6:
                                     x_Ms_Johnson_11_7_PhysicsGroup1_Physics_Room_101_5_6
                                      <= 1
 RoomAvailability_Room_102_1_1: x_Mr_Smith_11_7_FullClass_Math_Room_102_1_1
                                + x_Mr_Lee_11_7_PhysicsGroup2_Physics_Room_102_1_1
                                 <= 1
 RoomAvailability_Room_102_1_2: x_Mr_Smith_11_7_FullClass_Math_Room_102_1_2
                                + x_Mr_Lee_11_7_PhysicsGroup2_Physics_Room_102_1_2
                                 <= 1
 RoomAvailability_Room_102_1_3: x_Mr_Smith_11_7_FullClass_Math_Room_102_1_3
                                + x_Mr_Lee_11_7_PhysicsGroup2_Physics_Room_102_1_3
                                 <= 1
 RoomAvailability_Room_102_1_4: x_Mr_Smith_11_7_FullClass_Math_Room_102_1_4
                                + x_Mr_Lee_11_7_PhysicsGroup2_Physics_Room_102_1_4
                                 <= 1
 RoomAvailability_Room_102_1_5: x_Mr_Smith_11_7_FullClass_Math_Room_102_1_5
                                + x_Mr_Lee_11_7_PhysicsGroup2_Physics_Room_102_1_5
                                 <= 1
 RoomAvailability_Room_102_1_6: x_Mr_Smith_11_7_FullClass_Math_Room_102_1_6
                                + x_Mr_Lee_11_7_PhysicsGroup2_Physics_Room_102_1_6
                                 <= 1
 RoomAvailability_Room_102_2_1: x_Mr_Smith_11_7_FullClass_Math_Room_102_2_1
                                + x_Mr_Lee_11_7_PhysicsGroup2_Physics_Room_102_2_1
                                 <= 1
 RoomAvailability_Room_102_2_2: x_Mr_Smith_11_7_FullClass_Math_Room_102_2_2
                                + x_Mr_Lee_11_7_PhysicsGroup2_Physics_Room_102_2_2
                                 <= 1
 RoomAvailability_Room_102_2_3: x_Mr_Smith_11_7_FullClass_Math_Room_102_2_3
                                + x_Mr_Lee_11_7_PhysicsGroup2_Physics_Room_102_2_3
                                 <= 1
 RoomAvailability_Room_102_2_4: x_Mr_Smith_11_7_FullClass_Math_Room_102_2_4
                                + x_Mr_Lee_11_7_PhysicsGroup2_Physics_Room_102_2_4
                                 <= 1
 RoomAvailability_Room_102_2_5: x_Mr_Smith_11_7_FullClass_Math_Room_102_2_5
                                + x_Mr_Lee_11_7_PhysicsGroup2_Physics_Room_102_2_5
                                 <= 1
 RoomAvailability_Room_102_2_6: x_Mr_Smith_11_7_FullClass_Math_Room_102_2_6
                                + x_Mr_Lee_11_7_PhysicsGroup2_Physics_Room_102_2_6
                                 <= 1
 RoomAvailability_Room_102_3_1: x_Mr_Smith_11_7_FullClass_Math_Room_102_3_1
                                + x_Mr_Lee_11_7_PhysicsGroup2_Physics_Room_102_3_1
                                 <= 1
 RoomAvailability_Room_102_3_2: x_Mr_Smith_11_7_FullClass_Math_Room_102_3_2
                                + x_Mr_Lee_11_7_PhysicsGroup2_Physics_Room_102_3_2
                                 <= 1
 RoomAvailability_Room_102_3_3: x_Mr_Smith_11_7_FullClass_Math_Room_102_3_3
                                + x_Mr_Lee_11_7_PhysicsGroup2_Physics_Room_102_3_3
                                 <= 1
 RoomAvailability_Room_102_3_4: x_Mr_Smith_11_7_FullClass_Math_Room_102_3_4
                                + x_Mr_Lee_11_7_PhysicsGroup2_Physics_Room_102_3_4
                                 <= 1
 RoomAvailability_Room_102_3_5: x_Mr_Smith_11_7_FullClass_Math_Room_102_3_5
                                + x_Mr_Lee_11_7_PhysicsGroup2_Physics_Room_102_3_5
                                 <= 1
 RoomAvailability_Room_102_3_6: x_Mr_Smith_11_7_FullClass_Math_Room_102_3_6
                                + x_Mr_Lee_11_7_PhysicsGroup2_Physics_Room_102_3_6
                                 <= 1
 RoomAvailability_Room_102_4_1: x_Mr_Smith_11_7_FullClass_Math_Room_102_4_1
                                + x_Mr_Lee_11_7_PhysicsGroup2_Physics_Room_102_4_1
                                 <= 1
 RoomAvailability_Room_102_4_2: x_Mr_Smith_11_7_FullClass_Math_Room_102_4_2
                                + x_Mr_Lee_11_7_PhysicsGroup2_Physics_Room_102_4_2
                                 <= 1
 RoomAvailability_Room_102_4_3: x_Mr_Smith_11_7_FullClass_Math_Room_102_4_3
                                + x_Mr_Lee_11_7_PhysicsGroup2_Physics_Room_102_4_3
                                 <= 1
 RoomAvailability_Room_102_4_4: x_Mr_Smith_11_7_FullClass_Math_Room_102_4_4
                                + x_Mr_Lee_11_7_PhysicsGroup2_Physics_Room_102_4_4
                                 <= 1
 RoomAvailability_Room_102_4_5: x_Mr_Smith_11_7_FullClass_Math_Room_102_4_5
                                + x_Mr_Lee_11_7_PhysicsGroup2_Physics_Room_102_4_5
                                 <= 1
 RoomAvailability_Room_102_4_6: x_Mr_Smith_11_7_FullClass_Math_Room_102_4_6
                                + x_Mr_Lee_11_7_PhysicsGroup2_Physics_Room_102_4_6
                                 <= 1
 RoomAvailability_Room_102_5_1: x_Mr_Smith_11_7_FullClass_Math_Room_102_5_1
                                + x_Mr_Lee_11_7_PhysicsGroup2_Physics_Room_102_5_1
                                 <= 1
 RoomAvailability_Room_102_5_2: x_Mr_Smith_11_7_FullClass_Math_Room_102_5_2
                                + x_Mr_Lee_11_7_PhysicsGroup2_Physics_Room_102_5_2
                                 <= 1
 RoomAvailability_Room_102_5_3: x_Mr_Smith_11_7_FullClass_Math_Room_102_5_3
                                + x_Mr_Lee_11_7_PhysicsGroup2_Physics_Room_102_5_3
                                 <= 1
 RoomAvailability_Room_102_5_4: x_Mr_Smith_11_7_FullClass_Math_Room_102_5_4
                                + x_Mr_Lee_11_7_PhysicsGroup2_Physics_Room_102_5_4
                                 <= 1
 RoomAvailability_Room_102_5_5: x_Mr_Smith_11_7_FullClass_Math_Room_102_5_5
                                + x_Mr_Lee_11_7_PhysicsGroup2_Physics_Room_102_5_5
                                 <= 1
 RoomAvailability_Room_102_5_6: x_Mr_Smith_11_7_FullClass_Math_Room_102_5_6
                                + x_Mr_Lee_11_7_PhysicsGroup2_Physics_Room_102_5_6
                                 <= 1
 RoomAvailability_Room_101_1_1: x_Mr_Smith_11_7_FullClass_Math_Room_101_1_1
                                + x_Ms_Johnson_11_7_PhysicsGroup1_Physics_Room_101_1_1
                                 <= 1
 RoomAvailability_Room_101_1_2: x_Mr_Smith_11_7_FullClass_Math_Room_101_1_2
                                + x_Ms_Johnson_11_7_PhysicsGroup1_Physics_Room_101_1_2
                                 <= 1
 RoomAvailability_Room_101_1_3: x_Mr_Smith_11_7_FullClass_Math_Room_101_1_3
                                + x_Ms_Johnson_11_7_PhysicsGroup1_Physics_Room_101_1_3
                                 <= 1
 RoomAvailability_Room_101_1_4: x_Mr_Smith_11_7_FullClass_Math_Room_101_1_4
                                + x_Ms_Johnson_11_7_PhysicsGroup1_Physics_Room_101_1_4
                                 <= 1
 RoomAvailability_Room_101_1_5: x_Mr_Smith_11_7_FullClass_Math_Room_101_1_5
                                + x_Ms_Johnson_11_7_PhysicsGroup1_Physics_Room_101_1_5
                                 <= 1
 RoomAvailability_Room_101_1_6: x_Mr_Smith_11_7_FullClass_Math_Room_101_1_6
                                + x_Ms_Johnson_11_7_PhysicsGroup1_Physics_Room_101_1_6
                                 <= 1
 RoomAvailability_Room_101_2_1: x_Mr_Smith_11_7_FullClass_Math_Room_101_2_1
                                + x_Ms_Johnson_11_7_PhysicsGroup1_Physics_Room_101_2_1
                                 <= 1
 RoomAvailability_Room_101_2_2: x_Mr_Smith_11_7_FullClass_Math_Room_101_2_2
                                + x_Ms_Johnson_11_7_PhysicsGroup1_Physics_Room_101_2_2
                                 <= 1
 RoomAvailability_Room_101_2_3: x_Mr_Smith_11_7_FullClass_Math_Room_101_2_3
                                + x_Ms_Johnson_11_7_PhysicsGroup1_Physics_Room_101_2_3
                                 <= 1
 RoomAvailability_Room_101_2_4: x_Mr_Smith_11_7_FullClass_Math_Room_101_2_4
                                + x_Ms_Johnson_11_7_PhysicsGroup1_Physics_Room_101_2_4
                                 <= 1
 RoomAvailability_Room_101_2_5: x_Mr_Smith_11_7_FullClass_Math_Room_101_2_5
                                + x_Ms_Johnson_11_7_PhysicsGroup1_Physics_Room_101_2_5
                                 <= 1
 RoomAvailability_Room_101_2_6: x_Mr_Smith_11_7_FullClass_Math_Room_101_2_6
                                + x_Ms_Johnson_11_7_PhysicsGroup1_Physics_Room_101_2_6
                                 <= 1
 RoomAvailability_Room_101_3_1: x_Mr_Smith_11_7_FullClass_Math_Room_101_3_1
                                + x_Ms_Johnson_11_7_PhysicsGroup1_Physics_Room_101_3_1
                                 <= 1
 RoomAvailability_Room_101_3_2: x_Mr_Smith_11_7_FullClass_Math_Room_101_3_2
                                + x_Ms_Johnson_11_7_PhysicsGroup1_Physics_Room_101_3_2
                                 <= 1
 RoomAvailability_Room_101_3_3: x_Mr_Smith_11_7_FullClass_Math_Room_101_3_3
                                + x_Ms_Johnson_11_7_PhysicsGroup1_Physics_Room_101_3_3
                                 <= 1
 RoomAvailability_Room_101_3_4: x_Mr_Smith_11_7_FullClass_Math_Room_101_3_4
                                + x_Ms_Johnson_11_7_PhysicsGroup1_Physics_Room_101_3_4
                                 <= 1
 RoomAvailability_Room_101_3_5: x_Mr_Smith_11_7_FullClass_Math_Room_101_3_5
                                + x_Ms_Johnson_11_7_PhysicsGroup1_Physics_Room_101_3_5
                                 <= 1
 RoomAvailability_Room_101_3_6: x_Mr_Smith_11_7_FullClass_Math_Room_101_3_6
                                + x_Ms_Johnson_11_7_PhysicsGroup1_Physics_Room_101_3_6
                                 <= 1
 RoomAvailability_Room_101_4_1: x_Mr_Smith_11_7_FullClass_Math_Room_101_4_1
                                + x_Ms_Johnson_11_7_PhysicsGroup1_Physics_Room_101_4_1
                                 <= 1
 RoomAvailability_Room_101_4_2: x_Mr_Smith_11_7_FullClass_Math_Room_101_4_2
                                + x_Ms_Johnson_11_7_PhysicsGroup1_Physics_Room_101_4_2
                                 <= 1
 RoomAvailability_Room_101_4_3: x_Mr_Smith_11_7_FullClass_Math_Room_101_4_3
                                + x_Ms_Johnson_11_7_PhysicsGroup1_Physics_Room_101_4_3
                                 <= 1
 RoomAvailability_Room_101_4_4: x_Mr_Smith_11_7_FullClass_Math_Room_101_4_4
                                + x_Ms_Johnson_11_7_PhysicsGroup1_Physics_Room_101_4_4
                                 <= 1
 RoomAvailability_Room_101_4_5: x_Mr_Smith_11_7_FullClass_Math_Room_101_4_5
                                + x_Ms_Johnson_11_7_PhysicsGroup1_Physics_Room_101_4_5
                                 <= 1
 RoomAvailability_Room_101_4_6: x_Mr_Smith_11_7_FullClass_Math_Room_101_4_6
                                + x_Ms_Johnson_11_7_PhysicsGroup1_Physics_Room_101_4_6
                                 <= 1
 RoomAvailability_Room_101_5_1: x_Mr_Smith_11_7_FullClass_Math_Room_101_5_1
                                + x_Ms_Johnson_11_7_PhysicsGroup1_Physics_Room_101_5_1
                                 <= 1
 RoomAvailability_Room_101_5_2: x_Mr_Smith_11_7_FullClass_Math_Room_101_5_2
                                + x_Ms_Johnson_11_7_PhysicsGroup1_Physics_Room_101_5_2
                                 <= 1
 RoomAvailability_Room_101_5_3: x_Mr_Smith_11_7_FullClass_Math_Room_101_5_3
                                + x_Ms_Johnson_11_7_PhysicsGroup1_Physics_Room_101_5_3
                                 <= 1
 RoomAvailability_Room_101_5_4: x_Mr_Smith_11_7_FullClass_Math_Room_101_5_4
                                + x_Ms_Johnson_11_7_PhysicsGroup1_Physics_Room_101_5_4
                                 <= 1
 RoomAvailability_Room_101_5_5: x_Mr_Smith_11_7_FullClass_Math_Room_101_5_5
                                + x_Ms_Johnson_11_7_PhysicsGroup1_Physics_Room_101_5_5
                                 <= 1
 RoomAvailability_Room_101_5_6: x_Mr_Smith_11_7_FullClass_Math_Room_101_5_6
                                + x_Ms_Johnson_11_7_PhysicsGroup1_Physics_Room_101_5_6
                                 <= 1
 LessonRequirement_Mr_Smith_11_7_FullClass_Math:
                                                 x_Mr_Smith_11_7_FullClass_Math_Room_101_1_1
                                                 + x_Mr_Smith_11_7_FullClass_Math_Room_101_1_2
                                                 + x_Mr_Smith_11_7_FullClass_Math_Room_101_1_3
                                                 + x_Mr_Smith_11_7_FullClass_Math_Room_101_1_4
                                                 + x_Mr_Smith_11_7_FullClass_Math_Room_101_1_5
                                                 + x_Mr_Smith_11_7_FullClass_Math_Room_101_1_6
                                                 + x_Mr_Smith_11_7_FullClass_Math_Room_101_2_1
                                                 + x_Mr_Smith_11_7_FullClass_Math_Room_101_2_2
                                                 + x_Mr_Smith_11_7_FullClass_Math_Room_101_2_3
                                                 + x_Mr_Smith_11_7_FullClass_Math_Room_101_2_4
                                                 + x_Mr_Smith_11_7_FullClass_Math_Room_101_2_5
                                                 + x_Mr_Smith_11_7_FullClass_Math_Room_101_2_6
                                                 + x_Mr_Smith_11_7_FullClass_Math_Room_101_3_1
                                                 + x_Mr_Smith_11_7_FullClass_Math_Room_101_3_2
                                                 + x_Mr_Smith_11_7_FullClass_Math_Room_101_3_3
                                                 + x_Mr_Smith_11_7_FullClass_Math_Room_101_3_4
                                                 + x_Mr_Smith_11_7_FullClass_Math_Room_101_3_5
                                                 + x_Mr_Smith_11_7_FullClass_Math_Room_101_3_6
                                                 + x_Mr_Smith_11_7_FullClass_Math_Room_101_4_1
                                                 + x_Mr_Smith_11_7_FullClass_Math_Room_101_4_2
                                                 + x_Mr_Smith_11_7_FullClass_Math_Room_101_4_3
                                                 + x_Mr_Smith_11_7_FullClass_Math_Room_101_4_4
                                                 + x_Mr_Smith_11_7_FullClass_Math_Room_101_4_5
                                                 + x_Mr_Smith_11_7_FullClass_Math_Room_101_4_6
                                                 + x_Mr_Smith_11_7_FullClass_Math_Room_101_5_1
                                                 + x_Mr_Smith_11_7_FullClass_Math_Room_101_5_2
                                                 + x_Mr_Smith_11_7_FullClass_Math_Room_101_5_3
                                                 + x_Mr_Smith_11_7_FullClass_Math_Room_101_5_4
                                                 + x_Mr_Smith_11_7_FullClass_Math_Room_101_5_5
                                                 + x_Mr_Smith_11_7_FullClass_Math_Room_101_5_6
                                                 + x_Mr_Smith_11_7_FullClass_Math_Room_102_1_1
                                                 + x_Mr_Smith_11_7_FullClass_Math_Room_102_1_2
                                                 + x_Mr_Smith_11_7_FullClass_Math_Room_102_1_3
                                                 + x_Mr_Smith_11_7_FullClass_Math_Room_102_1_4
                                                 + x_Mr_Smith_11_7_FullClass_Math_Room_102_1_5
                                                 + x_Mr_Smith_11_7_FullClass_Math_Room_102_1_6
                                                 + x_Mr_Smith_11_7_FullClass_Math_Room_102_2_1
                                                 + x_Mr_Smith_11_7_FullClass_Math_Room_102_2_2
                                                 + x_Mr_Smith_11_7_FullClass_Math_Room_102_2_3
                                                 + x_Mr_Smith_11_7_FullClass_Math_Room_102_2_4
                                                 + x_Mr_Smith_11_7_FullClass_Math_Room_102_2_5
                                                 + x_Mr_Smith_11_7_FullClass_Math_Room_102_2_6
                                                 + x_Mr_Smith_11_7_FullClass_Math_Room_102_3_1
                                                 + x_Mr_Smith_11_7_FullClass_Math_Room_102_3_2
                                                 + x_Mr_Smith_11_7_FullClass_Math_Room_102_3_3
                                                 + x_Mr_Smith_11_7_FullClass_Math_Room_102_3_4
                                                 + x_Mr_Smith_11_7_FullClass_Math_Room_102_3_5
                                                 + x_Mr_Smith_11_7_FullClass_Math_Room_102_3_6
                                                 + x_Mr_Smith_11_7_FullClass_Math_Room_102_4_1
                                                 + x_Mr_Smith_11_7_FullClass_Math_Room_102_4_2
                                                 + x_Mr_Smith_11_7_FullClass_Math_Room_102_4_3
                                                 + x_Mr_Smith_11_7_FullClass_Math_Room_102_4_4
                                                 + x_Mr_Smith_11_7_FullClass_Math_Room_102_4_5
                                                 + x_Mr_Smith_11_7_FullClass_Math_Room_102_4_6
                                                 + x_Mr_Smith_11_7_FullClass_Math_Room_102_5_1
                                                 + x_Mr_Smith_11_7_FullClass_Math_Room_102_5_2
                                                 + x_Mr_Smith_11_7_FullClass_Math_Room_102_5_3
                                                 + x_Mr_Smith_11_7_FullClass_Math_Room_102_5_4
                                                 + x_Mr_Smith_11_7_FullClass_Math_Room_102_5_5
                                                 + x_Mr_Smith_11_7_FullClass_Math_Room_102_5_6
                                                  = 5
 LessonRequirement_Ms_Johnson_11_7_PhysicsGroup1_Physics:
                                                          x_Ms_Johnson_11_7_PhysicsGroup1_Physics_Room_101_1_1
                                                          + x_Ms_Johnson_11_7_PhysicsGroup1_Physics_Room_101_1_2
                                                          + x_Ms_Johnson_11_7_PhysicsGroup1_Physics_Room_101_1_3
                                                          + x_Ms_Johnson_11_7_PhysicsGroup1_Physics_Room_101_1_4
                                                          + x_Ms_Johnson_11_7_PhysicsGroup1_Physics_Room_101_1_5
                                                          + x_Ms_Johnson_11_7_PhysicsGroup1_Physics_Room_101_1_6
                                                          + x_Ms_Johnson_11_7_PhysicsGroup1_Physics_Room_101_2_1
                                                          + x_Ms_Johnson_11_7_PhysicsGroup1_Physics_Room_101_2_2
                                                          + x_Ms_Johnson_11_7_PhysicsGroup1_Physics_Room_101_2_3
                                                          + x_Ms_Johnson_11_7_PhysicsGroup1_Physics_Room_101_2_4
                                                          + x_Ms_Johnson_11_7_PhysicsGroup1_Physics_Room_101_2_5
                                                          + x_Ms_Johnson_11_7_PhysicsGroup1_Physics_Room_101_2_6
                                                          + x_Ms_Johnson_11_7_PhysicsGroup1_Physics_Room_101_3_1
                                                          + x_Ms_Johnson_11_7_PhysicsGroup1_Physics_Room_101_3_2
                                                          + x_Ms_Johnson_11_7_PhysicsGroup1_Physics_Room_101_3_3
                                                          + x_Ms_Johnson_11_7_PhysicsGroup1_Physics_Room_101_3_4
                                                          + x_Ms_Johnson_11_7_PhysicsGroup1_Physics_Room_101_3_5
                                                          + x_Ms_Johnson_11_7_PhysicsGroup1_Physics_Room_101_3_6
                                                          + x_Ms_Johnson_11_7_PhysicsGroup1_Physics_Room_101_4_1
                                                          + x_Ms_Johnson_11_7_PhysicsGroup1_Physics_Room_101_4_2
                                                          + x_Ms_Johnson_11_7_PhysicsGroup1_Physics_Room_101_4_3
                                                          + x_Ms_Johnson_11_7_PhysicsGroup1_Physics_Room_101_4_4
                                                          + x_Ms_Johnson_11_7_PhysicsGroup1_Physics_Room_101_4_5
                                                          + x_Ms_Johnson_11_7_PhysicsGroup1_Physics_Room_101_4_6
                                                          + x_Ms_Johnson_11_7_PhysicsGroup1_Physics_Room_101_5_1
                                                          + x_Ms_Johnson_11_7_PhysicsGroup1_Physics_Room_101_5_2
                                                          + x_Ms_Johnson_11_7_PhysicsGroup1_Physics_Room_101_5_3
                                                          + x_Ms_Johnson_11_7_PhysicsGroup1_Physics_Room_101_5_4
                                                          + x_Ms_Johnson_11_7_PhysicsGroup1_Physics_Room_101_5_5
                                                          + x_Ms_Johnson_11_7_PhysicsGroup1_Physics_Room_101_5_6
                                                           = 3
 LessonRequirement_Mr_Lee_11_7_PhysicsGroup2_Physics:
                                                      x_Mr_Lee_11_7_PhysicsGroup2_Physics_Room_102_1_1
                                                      + x_Mr_Lee_11_7_PhysicsGroup2_Physics_Room_102_1_2
                                                      + x_Mr_Lee_11_7_PhysicsGroup2_Physics_Room_102_1_3
                                                      + x_Mr_Lee_11_7_PhysicsGroup2_Physics_Room_102_1_4
                                                      + x_Mr_Lee_11_7_PhysicsGroup2_Physics_Room_102_1_5
                                                      + x_Mr_Lee_11_7_PhysicsGroup2_Physics_Room_102_1_6
                                                      + x_Mr_Lee_11_7_PhysicsGroup2_Physics_Room_102_2_1
                                                      + x_Mr_Lee_11_7_PhysicsGroup2_Physics_Room_102_2_2
                                                      + x_Mr_Lee_11_7_PhysicsGroup2_Physics_Room_102_2_3
                                                      + x_Mr_Lee_11_7_PhysicsGroup2_Physics_Room_102_2_4
                                                      + x_Mr_Lee_11_7_PhysicsGroup2_Physics_Room_102_2_5
                                                      + x_Mr_Lee_11_7_PhysicsGroup2_Physics_Room_102_2_6
                                                      + x_Mr_Lee_11_7_PhysicsGroup2_Physics_Room_102_3_1
                                                      + x_Mr_Lee_11_7_PhysicsGroup2_Physics_Room_102_3_2
                                                      + x_Mr_Lee_11_7_PhysicsGroup2_Physics_Room_102_3_3
                                                      + x_Mr_Lee_11_7_PhysicsGroup2_Physics_Room_102_3_4
                                                      + x_Mr_Lee_11_7_PhysicsGroup2_Physics_Room_102_3_5
                                                      + x_Mr_Lee_11_7_PhysicsGroup2_Physics_Room_102_3_6
                                                      + x_Mr_Lee_11_7_PhysicsGroup2_Physics_Room_102_4_1
                                                      + x_Mr_Lee_11_7_PhysicsGroup2_Physics_Room_102_4_2
                                                      + x_Mr_Lee_11_7_PhysicsGroup2_Physics_Room_102_4_3
                                                      + x_Mr_Lee_11_7_PhysicsGroup2_Physics_Room_102_4_4
                                                      + x_Mr_Lee_11_7_PhysicsGroup2_Physics_Room_102_4_5
                                                      + x_Mr_Lee_11_7_PhysicsGroup2_Physics_Room_102_4_6
                                                      + x_Mr_Lee_11_7_PhysicsGroup2_Physics_Room_102_5_1
                                                      + x_Mr_Lee_11_7_PhysicsGroup2_Physics_Room_102_5_2
                                                      + x_Mr_Lee_11_7_PhysicsGroup2_Physics_Room_102_5_3
                                                      + x_Mr_Lee_11_7_PhysicsGroup2_Physics_Room_102_5_4
                                                      + x_Mr_Lee_11_7_PhysicsGroup2_Physics_Room_102_5_5
                                                      + x_Mr_Lee_11_7_PhysicsGroup2_Physics_Room_102_5_6
                                                       = 3
 OneRoomPerSession_Mr_Smith_11_7_FullClass_1_1:
                                                x_Mr_Smith_11_7_FullClass_Math_Room_101_1_1
                                                + x_Mr_Smith_11_7_FullClass_Math_Room_102_1_1
                                                 <= 1
 OneRoomPerSession_Mr_Smith_11_7_FullClass_1_2:
                                                x_Mr_Smith_11_7_FullClass_Math_Room_101_1_2
                                                + x_Mr_Smith_11_7_FullClass_Math_Room_102_1_2
                                                 <= 1
 OneRoomPerSession_Mr_Smith_11_7_FullClass_1_3:
                                                x_Mr_Smith_11_7_FullClass_Math_Room_101_1_3
                                                + x_Mr_Smith_11_7_FullClass_Math_Room_102_1_3
                                                 <= 1
 OneRoomPerSession_Mr_Smith_11_7_FullClass_1_4:
                                                x_Mr_Smith_11_7_FullClass_Math_Room_101_1_4
                                                + x_Mr_Smith_11_7_FullClass_Math_Room_102_1_4
                                                 <= 1
 OneRoomPerSession_Mr_Smith_11_7_FullClass_1_5:
                                                x_Mr_Smith_11_7_FullClass_Math_Room_101_1_5
                                                + x_Mr_Smith_11_7_FullClass_Math_Room_102_1_5
                                                 <= 1
 OneRoomPerSession_Mr_Smith_11_7_FullClass_1_6:
                                                x_Mr_Smith_11_7_FullClass_Math_Room_101_1_6
                                                + x_Mr_Smith_11_7_FullClass_Math_Room_102_1_6
                                                 <= 1
 OneRoomPerSession_Mr_Smith_11_7_FullClass_2_1:
                                                x_Mr_Smith_11_7_FullClass_Math_Room_101_2_1
                                                + x_Mr_Smith_11_7_FullClass_Math_Room_102_2_1
                                                 <= 1
 OneRoomPerSession_Mr_Smith_11_7_FullClass_2_2:
                                                x_Mr_Smith_11_7_FullClass_Math_Room_101_2_2
                                                + x_Mr_Smith_11_7_FullClass_Math_Room_102_2_2
                                                 <= 1
 OneRoomPerSession_Mr_Smith_11_7_FullClass_2_3:
                                                x_Mr_Smith_11_7_FullClass_Math_Room_101_2_3
                                                + x_Mr_Smith_11_7_FullClass_Math_Room_102_2_3
                                                 <= 1
 OneRoomPerSession_Mr_Smith_11_7_FullClass_2_4:
                                                x_Mr_Smith_11_7_FullClass_Math_Room_101_2_4
                                                + x_Mr_Smith_11_7_FullClass_Math_Room_102_2_4
                                                 <= 1
 OneRoomPerSession_Mr_Smith_11_7_FullClass_2_5:
                                                x_Mr_Smith_11_7_FullClass_Math_Room_101_2_5
                                                + x_Mr_Smith_11_7_FullClass_Math_Room_102_2_5
                                                 <= 1
 OneRoomPerSession_Mr_Smith_11_7_FullClass_2_6:
                                                x_Mr_Smith_11_7_FullClass_Math_Room_101_2_6
                                                + x_Mr_Smith_11_7_FullClass_Math_Room_102_2_6
                                                 <= 1
 OneRoomPerSession_Mr_Smith_11_7_FullClass_3_1:
                                                x_Mr_Smith_11_7_FullClass_Math_Room_101_3_1
                                                + x_Mr_Smith_11_7_FullClass_Math_Room_102_3_1
                                                 <= 1
 OneRoomPerSession_Mr_Smith_11_7_FullClass_3_2:
                                                x_Mr_Smith_11_7_FullClass_Math_Room_101_3_2
                                                + x_Mr_Smith_11_7_FullClass_Math_Room_102_3_2
                                                 <= 1
 OneRoomPerSession_Mr_Smith_11_7_FullClass_3_3:
                                                x_Mr_Smith_11_7_FullClass_Math_Room_101_3_3
                                                + x_Mr_Smith_11_7_FullClass_Math_Room_102_3_3
                                                 <= 1
 OneRoomPerSession_Mr_Smith_11_7_FullClass_3_4:
                                                x_Mr_Smith_11_7_FullClass_Math_Room_101_3_4
                                                + x_Mr_Smith_11_7_FullClass_Math_Room_102_3_4
                                                 <= 1
 OneRoomPerSession_Mr_Smith_11_7_FullClass_3_5:
                                                x_Mr_Smith_11_7_FullClass_Math_Room_101_3_5
                                                + x_Mr_Smith_11_7_FullClass_Math_Room_102_3_5
                                                 <= 1
 OneRoomPerSession_Mr_Smith_11_7_FullClass_3_6:
                                                x_Mr_Smith_11_7_FullClass_Math_Room_101_3_6
                                                + x_Mr_Smith_11_7_FullClass_Math_Room_102_3_6
                                                 <= 1
 OneRoomPerSession_Mr_Smith_11_7_FullClass_4_1:
                                                x_Mr_Smith_11_7_FullClass_Math_Room_101_4_1
                                                + x_Mr_Smith_11_7_FullClass_Math_Room_102_4_1
                                                 <= 1
 OneRoomPerSession_Mr_Smith_11_7_FullClass_4_2:
                                                x_Mr_Smith_11_7_FullClass_Math_Room_101_4_2
                                                + x_Mr_Smith_11_7_FullClass_Math_Room_102_4_2
                                                 <= 1
 OneRoomPerSession_Mr_Smith_11_7_FullClass_4_3:
                                                x_Mr_Smith_11_7_FullClass_Math_Room_101_4_3
                                                + x_Mr_Smith_11_7_FullClass_Math_Room_102_4_3
                                                 <= 1
 OneRoomPerSession_Mr_Smith_11_7_FullClass_4_4:
                                                x_Mr_Smith_11_7_FullClass_Math_Room_101_4_4
                                                + x_Mr_Smith_11_7_FullClass_Math_Room_102_4_4
                                                 <= 1
 OneRoomPerSession_Mr_Smith_11_7_FullClass_4_5:
                                                x_Mr_Smith_11_7_FullClass_Math_Room_101_4_5
                                                + x_Mr_Smith_11_7_FullClass_Math_Room_102_4_5
                                                 <= 1
 OneRoomPerSession_Mr_Smith_11_7_FullClass_4_6:
                                                x_Mr_Smith_11_7_FullClass_Math_Room_101_4_6
                                                + x_Mr_Smith_11_7_FullClass_Math_Room_102_4_6
                                                 <= 1
 OneRoomPerSession_Mr_Smith_11_7_FullClass_5_1:
                                                x_Mr_Smith_11_7_FullClass_Math_Room_101_5_1
                                                + x_Mr_Smith_11_7_FullClass_Math_Room_102_5_1
                                                 <= 1
 OneRoomPerSession_Mr_Smith_11_7_FullClass_5_2:
                                                x_Mr_Smith_11_7_FullClass_Math_Room_101_5_2
                                                + x_Mr_Smith_11_7_FullClass_Math_Room_102_5_2
                                                 <= 1
 OneRoomPerSession_Mr_Smith_11_7_FullClass_5_3:
                                                x_Mr_Smith_11_7_FullClass_Math_Room_101_5_3
                                                + x_Mr_Smith_11_7_FullClass_Math_Room_102_5_3
                                                 <= 1
 OneRoomPerSession_Mr_Smith_11_7_FullClass_5_4:
                                                x_Mr_Smith_11_7_FullClass_Math_Room_101_5_4
                                                + x_Mr_Smith_11_7_FullClass_Math_Room_102_5_4
                                                 <= 1
 OneRoomPerSession_Mr_Smith_11_7_FullClass_5_5:
                                                x_Mr_Smith_11_7_FullClass_Math_Room_101_5_5
                                                + x_Mr_Smith_11_7_FullClass_Math_Room_102_5_5
                                                 <= 1
 OneRoomPerSession_Mr_Smith_11_7_FullClass_5_6:
                                                x_Mr_Smith_11_7_FullClass_Math_Room_101_5_6
                                                + x_Mr_Smith_11_7_FullClass_Math_Room_102_5_6
                                                 <= 1
 OneRoomPerSession_Ms_Johnson_11_7_PhysicsGroup1_1_1:
                                                      x_Ms_Johnson_11_7_PhysicsGroup1_Physics_Room_101_1_1
                                                       <= 1
 OneRoomPerSession_Ms_Johnson_11_7_PhysicsGroup1_1_2:
                                                      x_Ms_Johnson_11_7_PhysicsGroup1_Physics_Room_101_1_2
                                                       <= 1
 OneRoomPerSession_Ms_Johnson_11_7_PhysicsGroup1_1_3:
                                                      x_Ms_Johnson_11_7_PhysicsGroup1_Physics_Room_101_1_3
                                                       <= 1
 OneRoomPerSession_Ms_Johnson_11_7_PhysicsGroup1_1_4:
                                                      x_Ms_Johnson_11_7_PhysicsGroup1_Physics_Room_101_1_4
                                                       <= 1
 OneRoomPerSession_Ms_Johnson_11_7_PhysicsGroup1_1_5:
                                                      x_Ms_Johnson_11_7_PhysicsGroup1_Physics_Room_101_1_5
                                                       <= 1
 OneRoomPerSession_Ms_Johnson_11_7_PhysicsGroup1_1_6:
                                                      x_Ms_Johnson_11_7_PhysicsGroup1_Physics_Room_101_1_6
                                                       <= 1
 OneRoomPerSession_Ms_Johnson_11_7_PhysicsGroup1_2_1:
                                                      x_Ms_Johnson_11_7_PhysicsGroup1_Physics_Room_101_2_1
                                                       <= 1
 OneRoomPerSession_Ms_Johnson_11_7_PhysicsGroup1_2_2:
                                                      x_Ms_Johnson_11_7_PhysicsGroup1_Physics_Room_101_2_2
                                                       <= 1
 OneRoomPerSession_Ms_Johnson_11_7_PhysicsGroup1_2_3:
                                                      x_Ms_Johnson_11_7_PhysicsGroup1_Physics_Room_101_2_3
                                                       <= 1
 OneRoomPerSession_Ms_Johnson_11_7_PhysicsGroup1_2_4:
                                                      x_Ms_Johnson_11_7_PhysicsGroup1_Physics_Room_101_2_4
                                                       <= 1
 OneRoomPerSession_Ms_Johnson_11_7_PhysicsGroup1_2_5:
                                                      x_Ms_Johnson_11_7_PhysicsGroup1_Physics_Room_101_2_5
                                                       <= 1
 OneRoomPerSession_Ms_Johnson_11_7_PhysicsGroup1_2_6:
                                                      x_Ms_Johnson_11_7_PhysicsGroup1_Physics_Room_101_2_6
                                                       <= 1
 OneRoomPerSession_Ms_Johnson_11_7_PhysicsGroup1_3_1:
                                                      x_Ms_Johnson_11_7_PhysicsGroup1_Physics_Room_101_3_1
                                                       <= 1
 OneRoomPerSession_Ms_Johnson_11_7_PhysicsGroup1_3_2:
                                                      x_Ms_Johnson_11_7_PhysicsGroup1_Physics_Room_101_3_2
                                                       <= 1
 OneRoomPerSession_Ms_Johnson_11_7_PhysicsGroup1_3_3:
                                                      x_Ms_Johnson_11_7_PhysicsGroup1_Physics_Room_101_3_3
                                                       <= 1
 OneRoomPerSession_Ms_Johnson_11_7_PhysicsGroup1_3_4:
                                                      x_Ms_Johnson_11_7_PhysicsGroup1_Physics_Room_101_3_4
                                                       <= 1
 OneRoomPerSession_Ms_Johnson_11_7_PhysicsGroup1_3_5:
                                                      x_Ms_Johnson_11_7_PhysicsGroup1_Physics_Room_101_3_5
                                                       <= 1
 OneRoomPerSession_Ms_Johnson_11_7_PhysicsGroup1_3_6:
                                                      x_Ms_Johnson_11_7_PhysicsGroup1_Physics_Room_101_3_6
                                                       <= 1
 OneRoomPerSession_Ms_Johnson_11_7_PhysicsGroup1_4_1:
                                                      x_Ms_Johnson_11_7_PhysicsGroup1_Physics_Room_101_4_1
                                                       <= 1
 OneRoomPerSession_Ms_Johnson_11_7_PhysicsGroup1_4_2:
                                                      x_Ms_Johnson_11_7_PhysicsGroup1_Physics_Room_101_4_2
                                                       <= 1
 OneRoomPerSession_Ms_Johnson_11_7_PhysicsGroup1_4_3:
                                                      x_Ms_Johnson_11_7_PhysicsGroup1_Physics_Room_101_4_3
                                                       <= 1
 OneRoomPerSession_Ms_Johnson_11_7_PhysicsGroup1_4_4:
                                                      x_Ms_Johnson_11_7_PhysicsGroup1_Physics_Room_101_4_4
                                                       <= 1
 OneRoomPerSession_Ms_Johnson_11_7_PhysicsGroup1_4_5:
                                                      x_Ms_Johnson_11_7_PhysicsGroup1_Physics_Room_101_4_5
                                                       <= 1
 OneRoomPerSession_Ms_Johnson_11_7_PhysicsGroup1_4_6:
                                                      x_Ms_Johnson_11_7_PhysicsGroup1_Physics_Room_101_4_6
                                                       <= 1
 OneRoomPerSession_Ms_Johnson_11_7_PhysicsGroup1_5_1:
                                                      x_Ms_Johnson_11_7_PhysicsGroup1_Physics_Room_101_5_1
                                                       <= 1
 OneRoomPerSession_Ms_Johnson_11_7_PhysicsGroup1_5_2:
                                                      x_Ms_Johnson_11_7_PhysicsGroup1_Physics_Room_101_5_2
                                                       <= 1
 OneRoomPerSession_Ms_Johnson_11_7_PhysicsGroup1_5_3:
                                                      x_Ms_Johnson_11_7_PhysicsGroup1_Physics_Room_101_5_3
                                                       <= 1
 OneRoomPerSession_Ms_Johnson_11_7_PhysicsGroup1_5_4:
                                                      x_Ms_Johnson_11_7_PhysicsGroup1_Physics_Room_101_5_4
                                                       <= 1
 OneRoomPerSession_Ms_Johnson_11_7_PhysicsGroup1_5_5:
                                                      x_Ms_Johnson_11_7_PhysicsGroup1_Physics_Room_101_5_5
                                                       <= 1
 OneRoomPerSession_Ms_Johnson_11_7_PhysicsGroup1_5_6:
                                                      x_Ms_Johnson_11_7_PhysicsGroup1_Physics_Room_101_5_6
                                                       <= 1
 OneRoomPerSession_Mr_Lee_11_7_PhysicsGroup2_1_1:
                                                  x_Mr_Lee_11_7_PhysicsGroup2_Physics_Room_102_1_1
                                                   <= 1
 OneRoomPerSession_Mr_Lee_11_7_PhysicsGroup2_1_2:
                                                  x_Mr_Lee_11_7_PhysicsGroup2_Physics_Room_102_1_2
                                                   <= 1
 OneRoomPerSession_Mr_Lee_11_7_PhysicsGroup2_1_3:
                                                  x_Mr_Lee_11_7_PhysicsGroup2_Physics_Room_102_1_3
                                                   <= 1
 OneRoomPerSession_Mr_Lee_11_7_PhysicsGroup2_1_4:
                                                  x_Mr_Lee_11_7_PhysicsGroup2_Physics_Room_102_1_4
                                                   <= 1
 OneRoomPerSession_Mr_Lee_11_7_PhysicsGroup2_1_5:
                                                  x_Mr_Lee_11_7_PhysicsGroup2_Physics_Room_102_1_5
                                                   <= 1
 OneRoomPerSession_Mr_Lee_11_7_PhysicsGroup2_1_6:
                                                  x_Mr_Lee_11_7_PhysicsGroup2_Physics_Room_102_1_6
                                                   <= 1
 OneRoomPerSession_Mr_Lee_11_7_PhysicsGroup2_2_1:
                                                  x_Mr_Lee_11_7_PhysicsGroup2_Physics_Room_102_2_1
                                                   <= 1
 OneRoomPerSession_Mr_Lee_11_7_PhysicsGroup2_2_2:
                                                  x_Mr_Lee_11_7_PhysicsGroup2_Physics_Room_102_2_2
                                                   <= 1
 OneRoomPerSession_Mr_Lee_11_7_PhysicsGroup2_2_3:
                                                  x_Mr_Lee_11_7_PhysicsGroup2_Physics_Room_102_2_3
                                                   <= 1
 OneRoomPerSession_Mr_Lee_11_7_PhysicsGroup2_2_4:
                                                  x_Mr_Lee_11_7_PhysicsGroup2_Physics_Room_102_2_4
                                                   <= 1
 OneRoomPerSession_Mr_Lee_11_7_PhysicsGroup2_2_5:
                                                  x_Mr_Lee_11_7_PhysicsGroup2_Physics_Room_102_2_5
                                                   <= 1
 OneRoomPerSession_Mr_Lee_11_7_PhysicsGroup2_2_6:
                                                  x_Mr_Lee_11_7_PhysicsGroup2_Physics_Room_102_2_6
                                                   <= 1
 OneRoomPerSession_Mr_Lee_11_7_PhysicsGroup2_3_1:
                                                  x_Mr_Lee_11_7_PhysicsGroup2_Physics_Room_102_3_1
                                                   <= 1
 OneRoomPerSession_Mr_Lee_11_7_PhysicsGroup2_3_2:
                                                  x_Mr_Lee_11_7_PhysicsGroup2_Physics_Room_102_3_2
                                                   <= 1
 OneRoomPerSession_Mr_Lee_11_7_PhysicsGroup2_3_3:
                                                  x_Mr_Lee_11_7_PhysicsGroup2_Physics_Room_102_3_3
                                                   <= 1
 OneRoomPerSession_Mr_Lee_11_7_PhysicsGroup2_3_4:
                                                  x_Mr_Lee_11_7_PhysicsGroup2_Physics_Room_102_3_4
                                                   <= 1
 OneRoomPerSession_Mr_Lee_11_7_PhysicsGroup2_3_5:
                                                  x_Mr_Lee_11_7_PhysicsGroup2_Physics_Room_102_3_5
                                                   <= 1
 OneRoomPerSession_Mr_Lee_11_7_PhysicsGroup2_3_6:
                                                  x_Mr_Lee_11_7_PhysicsGroup2_Physics_Room_102_3_6
                                                   <= 1
 OneRoomPerSession_Mr_Lee_11_7_PhysicsGroup2_4_1:
                                                  x_Mr_Lee_11_7_PhysicsGroup2_Physics_Room_102_4_1
                                                   <= 1
 OneRoomPerSession_Mr_Lee_11_7_PhysicsGroup2_4_2:
                                                  x_Mr_Lee_11_7_PhysicsGroup2_Physics_Room_102_4_2
                                                   <= 1
 OneRoomPerSession_Mr_Lee_11_7_PhysicsGroup2_4_3:
                                                  x_Mr_Lee_11_7_PhysicsGroup2_Physics_Room_102_4_3
                                                   <= 1
 OneRoomPerSession_Mr_Lee_11_7_PhysicsGroup2_4_4:
                                                  x_Mr_Lee_11_7_PhysicsGroup2_Physics_Room_102_4_4
                                                   <= 1
 OneRoomPerSession_Mr_Lee_11_7_PhysicsGroup2_4_5:
                                                  x_Mr_Lee_11_7_PhysicsGroup2_Physics_Room_102_4_5
                                                   <= 1
 OneRoomPerSession_Mr_Lee_11_7_PhysicsGroup2_4_6:
                                                  x_Mr_Lee_11_7_PhysicsGroup2_Physics_Room_102_4_6
                                                   <= 1
 OneRoomPerSession_Mr_Lee_11_7_PhysicsGroup2_5_1:
                                                  x_Mr_Lee_11_7_PhysicsGroup2_Physics_Room_102_5_1
                                                   <= 1
 OneRoomPerSession_Mr_Lee_11_7_PhysicsGroup2_5_2:
                                                  x_Mr_Lee_11_7_PhysicsGroup2_Physics_Room_102_5_2
                                                   <= 1
 OneRoomPerSession_Mr_Lee_11_7_PhysicsGroup2_5_3:
                                                  x_Mr_Lee_11_7_PhysicsGroup2_Physics_Room_102_5_3
                                                   <= 1
 OneRoomPerSession_Mr_Lee_11_7_PhysicsGroup2_5_4:
                                                  x_Mr_Lee_11_7_PhysicsGroup2_Physics_Room_102_5_4
                                                   <= 1
 OneRoomPerSession_Mr_Lee_11_7_PhysicsGroup2_5_5:
                                                  x_Mr_Lee_11_7_PhysicsGroup2_Physics_Room_102_5_5
                                                   <= 1
 OneRoomPerSession_Mr_Lee_11_7_PhysicsGroup2_5_6:
                                                  x_Mr_Lee_11_7_PhysicsGroup2_Physics_Room_102_5_6
                                                   <= 1
 GroupSessionRequirement_11_7_group0: y_11_7_group0_1_1 + y_11_7_group0_1_2
                                      + y_11_7_group0_1_3 + y_11_7_group0_1_4
                                      + y_11_7_group0_1_5 + y_11_7_group0_1_6
                                      + y_11_7_group0_2_1 + y_11_7_group0_2_2
                                      + y_11_7_group0_2_3 + y_11_7_group0_2_4
                                      + y_11_7_group0_2_5 + y_11_7_group0_2_6
                                      + y_11_7_group0_3_1 + y_11_7_group0_3_2
                                      + y_11_7_group0_3_3 + y_11_7_group0_3_4
                                      + y_11_7_group0_3_5 + y_11_7_group0_3_6
                                      + y_11_7_group0_4_1 + y_11_7_group0_4_2
                                      + y_11_7_group0_4_3 + y_11_7_group0_4_4
                                      + y_11_7_group0_4_5 + y_11_7_group0_4_6
                                      + y_11_7_group0_5_1 + y_11_7_group0_5_2
                                      + y_11_7_group0_5_3 + y_11_7_group0_5_4
                                      + y_11_7_group0_5_5 + y_11_7_group0_5_6
                                       = 5
 GroupSessionRequirement_11_7_group1: y_11_7_group1_1_1 + y_11_7_group1_1_2
                                      + y_11_7_group1_1_3 + y_11_7_group1_1_4
                                      + y_11_7_group1_1_5 + y_11_7_group1_1_6
                                      + y_11_7_group1_2_1 + y_11_7_group1_2_2
                                      + y_11_7_group1_2_3 + y_11_7_group1_2_4
                                      + y_11_7_group1_2_5 + y_11_7_group1_2_6
                                      + y_11_7_group1_3_1 + y_11_7_group1_3_2
                                      + y_11_7_group1_3_3 + y_11_7_group1_3_4
                                      + y_11_7_group1_3_5 + y_11_7_group1_3_6
                                      + y_11_7_group1_4_1 + y_11_7_group1_4_2
                                      + y_11_7_group1_4_3 + y_11_7_group1_4_4
                                      + y_11_7_group1_4_5 + y_11_7_group1_4_6
                                      + y_11_7_group1_5_1 + y_11_7_group1_5_2
                                      + y_11_7_group1_5_3 + y_11_7_group1_5_4
                                      + y_11_7_group1_5_5 + y_11_7_group1_5_6
                                       = 6

Bounds
 0 <= x_Mr_Smith_11_7_FullClass_Math_Room_101_1_1 <= 1
 0 <= x_Mr_Smith_11_7_FullClass_Math_Room_101_1_2 <= 1
 0 <= x_Mr_Smith_11_7_FullClass_Math_Room_101_1_3 <= 1
 0 <= x_Mr_Smith_11_7_FullClass_Math_Room_101_1_4 <= 1
 0 <= x_Mr_Smith_11_7_FullClass_Math_Room_101_1_5 <= 1
 0 <= x_Mr_Smith_11_7_FullClass_Math_Room_101_1_6 <= 1
 0 <= x_Mr_Smith_11_7_FullClass_Math_Room_101_2_1 <= 1
 0 <= x_Mr_Smith_11_7_FullClass_Math_Room_101_2_2 <= 1
 0 <= x_Mr_Smith_11_7_FullClass_Math_Room_101_2_3 <= 1
 0 <= x_Mr_Smith_11_7_FullClass_Math_Room_101_2_4 <= 1
 0 <= x_Mr_Smith_11_7_FullClass_Math_Room_101_2_5 <= 1
 0 <= x_Mr_Smith_11_7_FullClass_Math_Room_101_2_6 <= 1
 0 <= x_Mr_Smith_11_7_FullClass_Math_Room_101_3_1 <= 1
 0 <= x_Mr_Smith_11_7_FullClass_Math_Room_101_3_2 <= 1
 0 <= x_Mr_Smith_11_7_FullClass_Math_Room_101_3_3 <= 1
 0 <= x_Mr_Smith_11_7_FullClass_Math_Room_101_3_4 <= 1
 0 <= x_Mr_Smith_11_7_FullClass_Math_Room_101_3_5 <= 1
 0 <= x_Mr_Smith_11_7_FullClass_Math_Room_101_3_6 <= 1
 0 <= x_Mr_Smith_11_7_FullClass_Math_Room_101_4_1 <= 1
 0 <= x_Mr_Smith_11_7_FullClass_Math_Room_101_4_2 <= 1
 0 <= x_Mr_Smith_11_7_FullClass_Math_Room_101_4_3 <= 1
 0 <= x_Mr_Smith_11_7_FullClass_Math_Room_101_4_4 <= 1
 0 <= x_Mr_Smith_11_7_FullClass_Math_Room_101_4_5 <= 1
 0 <= x_Mr_Smith_11_7_FullClass_Math_Room_101_4_6 <= 1
 0 <= x_Mr_Smith_11_7_FullClass_Math_Room_101_5_1 <= 1
 0 <= x_Mr_Smith_11_7_FullClass_Math_Room_101_5_2 <= 1
 0 <= x_Mr_Smith_11_7_FullClass_Math_Room_101_5_3 <= 1
 0 <= x_Mr_Smith_11_7_FullClass_Math_Room_101_5_4 <= 1
 0 <= x_Mr_Smith_11_7_FullClass_Math_Room_101_5_5 <= 1
 0 <= x_Mr_Smith_11_7_FullClass_Math_Room_101_5_6 <= 1
 0 <= x_Mr_Smith_11_7_FullClass_Math_Room_102_1_1 <= 1
 0 <= x_Mr_Smith_11_7_FullClass_Math_Room_102_1_2 <= 1
 0 <= x_Mr_Smith_11_7_FullClass_Math_Room_102_1_3 <= 1
 0 <= x_Mr_Smith_11_7_FullClass_Math_Room_102_1_4 <= 1
 0 <= x_Mr_Smith_11_7_FullClass_Math_Room_102_1_5 <= 1
 0 <= x_Mr_Smith_11_7_FullClass_Math_Room_102_1_6 <= 1
 0 <= x_Mr_Smith_11_7_FullClass_Math_Room_102_2_1 <= 1
 0 <= x_Mr_Smith_11_7_FullClass_Math_Room_102_2_2 <= 1
 0 <= x_Mr_Smith_11_7_FullClass_Math_Room_102_2_3 <= 1
 0 <= x_Mr_Smith_11_7_FullClass_Math_Room_102_2_4 <= 1
 0 <= x_Mr_Smith_11_7_FullClass_Math_Room_102_2_5 <= 1
 0 <= x_Mr_Smith_11_7_FullClass_Math_Room_102_2_6 <= 1
 0 <= x_Mr_Smith_11_7_FullClass_Math_Room_102_3_1 <= 1
 0 <= x_Mr_Smith_11_7_FullClass_Math_Room_102_3_2 <= 1
 0 <= x_Mr_Smith_11_7_FullClass_Math_Room_102_3_3 <= 1
 0 <= x_Mr_Smith_11_7_FullClass_Math_Room_102_3_4 <= 1
 0 <= x_Mr_Smith_11_7_FullClass_Math_Room_102_3_5 <= 1
 0 <= x_Mr_Smith_11_7_FullClass_Math_Room_102_3_6 <= 1
 0 <= x_Mr_Smith_11_7_FullClass_Math_Room_102_4_1 <= 1
 0 <= x_Mr_Smith_11_7_FullClass_Math_Room_102_4_2 <= 1
 0 <= x_Mr_Smith_11_7_FullClass_Math_Room_102_4_3 <= 1
 0 <= x_Mr_Smith_11_7_FullClass_Math_Room_102_4_4 <= 1
 0 <= x_Mr_Smith_11_7_FullClass_Math_Room_102_4_5 <= 1
 0 <= x_Mr_Smith_11_7_FullClass_Math_Room_102_4_6 <= 1
 0 <= x_Mr_Smith_11_7_FullClass_Math_Room_102_5_1 <= 1
 0 <= x_Mr_Smith_11_7_FullClass_Math_Room_102_5_2 <= 1
 0 <= x_Mr_Smith_11_7_FullClass_Math_Room_102_5_3 <= 1
 0 <= x_Mr_Smith_11_7_FullClass_Math_Room_102_5_4 <= 1
 0 <= x_Mr_Smith_11_7_FullClass_Math_Room_102_5_5 <= 1
 0 <= x_Mr_Smith_11_7_FullClass_Math_Room_102_5_6 <= 1
 0 <= x_Ms_Johnson_11_7_PhysicsGroup1_Physics_Room_101_1_1 <= 1
 0 <= x_Ms_Johnson_11_7_PhysicsGroup1_Physics_Room_101_1_2 <= 1
 0 <= x_Ms_Johnson_11_7_PhysicsGroup1_Physics_Room_101_1_3 <= 1
 0 <= x_Ms_Johnson_11_7_PhysicsGroup1_Physics_Room_101_1_4 <= 1
 0 <= x_Ms_Johnson_11_7_PhysicsGroup1_Physics_Room_101_1_5 <= 1
 0 <= x_Ms_Johnson_11_7_PhysicsGroup1_Physics_Room_101_1_6 <= 1
 0 <= x_Ms_Johnson_11_7_PhysicsGroup1_Physics_Room_101_2_1 <= 1
 0 <= x_Ms_Johnson_11_7_PhysicsGroup1_Physics_Room_101_2_2 <= 1
 0 <= x_Ms_Johnson_11_7_PhysicsGroup1_Physics_Room_101_2_3 <= 1
 0 <= x_Ms_Johnson_11_7_PhysicsGroup1_Physics_Room_101_2_4 <= 1
 0 <= x_Ms_Johnson_11_7_PhysicsGroup1_Physics_Room_101_2_5 <= 1
 0 <= x_Ms_Johnson_11_7_PhysicsGroup1_Physics_Room_101_2_6 <= 1
 0 <= x_Ms_Johnson_11_7_PhysicsGroup1_Physics_Room_101_3_1 <= 1
 0 <= x_Ms_Johnson_11_7_PhysicsGroup1_Physics_Room_101_3_2 <= 1
 0 <= x_Ms_Johnson_11_7_PhysicsGroup1_Physics_Room_101_3_3 <= 1
 0 <= x_Ms_Johnson_11_7_PhysicsGroup1_Physics_Room_101_3_4 <= 1
 0 <= x_Ms_Johnson_11_7_PhysicsGroup1_Physics_Room_101_3_5 <= 1
 0 <= x_Ms_Johnson_11_7_PhysicsGroup1_Physics_Room_101_3_6 <= 1
 0 <= x_Ms_Johnson_11_7_PhysicsGroup1_Physics_Room_101_4_1 <= 1
 0 <= x_Ms_Johnson_11_7_PhysicsGroup1_Physics_Room_101_4_2 <= 1
 0 <= x_Ms_Johnson_11_7_PhysicsGroup1_Physics_Room_101_4_3 <= 1
 0 <= x_Ms_Johnson_11_7_PhysicsGroup1_Physics_Room_101_4_4 <= 1
 0 <= x_Ms_Johnson_11_7_PhysicsGroup1_Physics_Room_101_4_5 <= 1
 0 <= x_Ms_Johnson_11_7_PhysicsGroup1_Physics_Room_101_4_6 <= 1
 0 <= x_Ms_Johnson_11_7_PhysicsGroup1_Physics_Room_101_5_1 <= 1
 0 <= x_Ms_Johnson_11_7_PhysicsGroup1_Physics_Room_101_5_2 <= 1
 0 <= x_Ms_Johnson_11_7_PhysicsGroup1_Physics_Room_101_5_3 <= 1
 0 <= x_Ms_Johnson_11_7_PhysicsGroup1_Physics_Room_101_5_4 <= 1
 0 <= x_Ms_Johnson_11_7_PhysicsGroup1_Physics_Room_101_5_5 <= 1
 0 <= x_Ms_Johnson_11_7_PhysicsGroup1_Physics_Room_101_5_6 <= 1
 0 <= x_Mr_Lee_11_7_PhysicsGroup2_Physics_Room_102_1_1 <= 1
 0 <= x_Mr_Lee_11_7_PhysicsGroup2_Physics_Room_102_1_2 <= 1
 0 <= x_Mr_Lee_11_7_PhysicsGroup2_Physics_Room_102_1_3 <= 1
 0 <= x_Mr_Lee_11_7_PhysicsGroup2_Physics_Room_102_1_4 <= 1
 0 <= x_Mr_Lee_11_7_PhysicsGroup2_Physics_Room_102_1_5 <= 1
 0 <= x_Mr_Lee_11_7_PhysicsGroup2_Physics_Room_102_1_6 <= 1
 0 <= x_Mr_Lee_11_7_PhysicsGroup2_Physics_Room_102_2_1 <= 1
 0 <= x_Mr_Lee_11_7_PhysicsGroup2_Physics_Room_102_2_2 <= 1
 0 <= x_Mr_Lee_11_7_PhysicsGroup2_Physics_Room_102_2_3 <= 1
 0 <= x_Mr_Lee_11_7_PhysicsGroup2_Physics_Room_102_2_4 <= 1
 0 <= x_Mr_Lee_11_7_PhysicsGroup2_Physics_Room_102_2_5 <= 1
 0 <= x_Mr_Lee_11_7_PhysicsGroup2_Physics_Room_102_2_6 <= 1
 0 <= x_Mr_Lee_11_7_PhysicsGroup2_Physics_Room_102_3_1 <= 1
 0 <= x_Mr_Lee_11_7_PhysicsGroup2_Physics_Room_102_3_2 <= 1
 0 <= x_Mr_Lee_11_7_PhysicsGroup2_Physics_Room_102_3_3 <= 1
 0 <= x_Mr_Lee_11_7_PhysicsGroup2_Physics_Room_102_3_4 <= 1
 0 <= x_Mr_Lee_11_7_PhysicsGroup2_Physics_Room_102_3_5 <= 1
 0 <= x_Mr_Lee_11_7_PhysicsGroup2_Physics_Room_102_3_6 <= 1
 0 <= x_Mr_Lee_11_7_PhysicsGroup2_Physics_Room_102_4_1 <= 1
 0 <= x_Mr_Lee_11_7_PhysicsGroup2_Physics_Room_102_4_2 <= 1
 0 <= x_Mr_Lee_11_7_PhysicsGroup2_Physics_Room_102_4_3 <= 1
 0 <= x_Mr_Lee_11_7_PhysicsGroup2_Physics_Room_102_4_4 <= 1
 0 <= x_Mr_Lee_11_7_PhysicsGroup2_Physics_Room_102_4_5 <= 1
 0 <= x_Mr_Lee_11_7_PhysicsGroup2_Physics_Room_102_4_6 <= 1
 0 <= x_Mr_Lee_11_7_PhysicsGroup2_Physics_Room_102_5_1 <= 1
 0 <= x_Mr_Lee_11_7_PhysicsGroup2_Physics_Room_102_5_2 <= 1
 0 <= x_Mr_Lee_11_7_PhysicsGroup2_Physics_Room_102_5_3 <= 1
 0 <= x_Mr_Lee_11_7_PhysicsGroup2_Physics_Room_102_5_4 <= 1
 0 <= x_Mr_Lee_11_7_PhysicsGroup2_Physics_Room_102_5_5 <= 1
 0 <= x_Mr_Lee_11_7_PhysicsGroup2_Physics_Room_102_5_6 <= 1
 0 <= y_11_7_group0_1_1 <= 1
 0 <= y_11_7_group0_1_2 <= 1
 0 <= y_11_7_group0_1_3 <= 1
 0 <= y_11_7_group0_1_4 <= 1
 0 <= y_11_7_group0_1_5 <= 1
 0 <= y_11_7_group0_1_6 <= 1
 0 <= y_11_7_group0_2_1 <= 1
 0 <= y_11_7_group0_2_2 <= 1
 0 <= y_11_7_group0_2_3 <= 1
 0 <= y_11_7_group0_2_4 <= 1
 0 <= y_11_7_group0_2_5 <= 1
 0 <= y_11_7_group0_2_6 <= 1
 0 <= y_11_7_group0_3_1 <= 1
 0 <= y_11_7_group0_3_2 <= 1
 0 <= y_11_7_group0_3_3 <= 1
 0 <= y_11_7_group0_3_4 <= 1
 0 <= y_11_7_group0_3_5 <= 1
 0 <= y_11_7_group0_3_6 <= 1
 0 <= y_11_7_group0_4_1 <= 1
 0 <= y_11_7_group0_4_2 <= 1
 0 <= y_11_7_group0_4_3 <= 1
 0 <= y_11_7_group0_4_4 <= 1
 0 <= y_11_7_group0_4_5 <= 1
 0 <= y_11_7_group0_4_6 <= 1
 0 <= y_11_7_group0_5_1 <= 1
 0 <= y_11_7_group0_5_2 <= 1
 0 <= y_11_7_group0_5_3 <= 1
 0 <= y_11_7_group0_5_4 <= 1
 0 <= y_11_7_group0_5_5 <= 1
 0 <= y_11_7_group0_5_6 <= 1
 0 <= y_11_7_group1_1_1 <= 1
 0 <= y_11_7_group1_1_2 <= 1
 0 <= y_11_7_group1_1_3 <= 1
 0 <= y_11_7_group1_1_4 <= 1
 0 <= y_11_7_group1_1_5 <= 1
 0 <= y_11_7_group1_1_6 <= 1
 0 <= y_11_7_group1_2_1 <= 1
 0 <= y_11_7_group1_2_2 <= 1
 0 <= y_11_7_group1_2_3 <= 1
 0 <= y_11_7_group1_2_4 <= 1
 0 <= y_11_7_group1_2_5 <= 1
 0 <= y_11_7_group1_2_6 <= 1
 0 <= y_11_7_group1_3_1 <= 1
 0 <= y_11_7_group1_3_2 <= 1
 0 <= y_11_7_group1_3_3 <= 1
 0 <= y_11_7_group1_3_4 <= 1
 0 <= y_11_7_group1_3_5 <= 1
 0 <= y_11_7_group1_3_6 <= 1
 0 <= y_11_7_group1_4_1 <= 1
 0 <= y_11_7_group1_4_2 <= 1
 0 <= y_11_7_group1_4_3 <= 1
 0 <= y_11_7_group1_4_4 <= 1
 0 <= y_11_7_group1_4_5 <= 1
 0 <= y_11_7_group1_4_6 <= 1
 0 <= y_11_7_group1_5_1 <= 1
 0 <= y_11_7_group1_5_2 <= 1
 0 <= y_11_7_group1_5_3 <= 1
 0 <= y_11_7_group1_5_4 <= 1
 0 <= y_11_7_group1_5_5 <= 1
 0 <= y_11_7_group1_5_6 <= 1

Binaries
 x_Mr_Smith_11_7_FullClass_Math_Room_101_1_1
 x_Mr_Smith_11_7_FullClass_Math_Room_101_1_2
 x_Mr_Smith_11_7_FullClass_Math_Room_101_1_3
 x_Mr_Smith_11_7_FullClass_Math_Room_101_1_4
 x_Mr_Smith_11_7_FullClass_Math_Room_101_1_5
 x_Mr_Smith_11_7_FullClass_Math_Room_101_1_6
 x_Mr_Smith_11_7_FullClass_Math_Room_101_2_1
 x_Mr_Smith_11_7_FullClass_Math_Room_101_2_2
 x_Mr_Smith_11_7_FullClass_Math_Room_101_2_3
 x_Mr_Smith_11_7_FullClass_Math_Room_101_2_4
 x_Mr_Smith_11_7_FullClass_Math_Room_101_2_5
 x_Mr_Smith_11_7_FullClass_Math_Room_101_2_6
 x_Mr_Smith_11_7_FullClass_Math_Room_101_3_1
 x_Mr_Smith_11_7_FullClass_Math_Room_101_3_2
 x_Mr_Smith_11_7_FullClass_Math_Room_101_3_3
 x_Mr_Smith_11_7_FullClass_Math_Room_101_3_4
 x_Mr_Smith_11_7_FullClass_Math_Room_101_3_5
 x_Mr_Smith_11_7_FullClass_Math_Room_101_3_6
 x_Mr_Smith_11_7_FullClass_Math_Room_101_4_1
 x_Mr_Smith_11_7_FullClass_Math_Room_101_4_2
 x_Mr_Smith_11_7_FullClass_Math_Room_101_4_3
 x_Mr_Smith_11_7_FullClass_Math_Room_101_4_4
 x_Mr_Smith_11_7_FullClass_Math_Room_101_4_5
 x_Mr_Smith_11_7_FullClass_Math_Room_101_4_6
 x_Mr_Smith_11_7_FullClass_Math_Room_101_5_1
 x_Mr_Smith_11_7_FullClass_Math_Room_101_5_2
 x_Mr_Smith_11_7_FullClass_Math_Room_101_5_3
 x_Mr_Smith_11_7_FullClass_Math_Room_101_5_4
 x_Mr_Smith_11_7_FullClass_Math_Room_101_5_5
 x_Mr_Smith_11_7_FullClass_Math_Room_101_5_6
 x_Mr_Smith_11_7_FullClass_Math_Room_102_1_1
 x_Mr_Smith_11_7_FullClass_Math_Room_102_1_2
 x_Mr_Smith_11_7_FullClass_Math_Room_102_1_3
 x_Mr_Smith_11_7_FullClass_Math_Room_102_1_4
 x_Mr_Smith_11_7_FullClass_Math_Room_102_1_5
 x_Mr_Smith_11_7_FullClass_Math_Room_102_1_6
 x_Mr_Smith_11_7_FullClass_Math_Room_102_2_1
 x_Mr_Smith_11_7_FullClass_Math_Room_102_2_2
 x_Mr_Smith_11_7_FullClass_Math_Room_102_2_3
 x_Mr_Smith_11_7_FullClass_Math_Room_102_2_4
 x_Mr_Smith_11_7_FullClass_Math_Room_102_2_5
 x_Mr_Smith_11_7_FullClass_Math_Room_102_2_6
 x_Mr_Smith_11_7_FullClass_Math_Room_102_3_1
 x_Mr_Smith_11_7_FullClass_Math_Room_102_3_2
 x_Mr_Smith_11_7_FullClass_Math_Room_102_3_3
 x_Mr_Smith_11_7_FullClass_Math_Room_102_3_4
 x_Mr_Smith_11_7_FullClass_Math_Room_102_3_5
 x_Mr_Smith_11_7_FullClass_Math_Room_102_3_6
 x_Mr_Smith_11_7_FullClass_Math_Room_102_4_1
 x_Mr_Smith_11_7_FullClass_Math_Room_102_4_2
 x_Mr_Smith_11_7_FullClass_Math_Room_102_4_3
 x_Mr_Smith_11_7_FullClass_Math_Room_102_4_4
 x_Mr_Smith_11_7_FullClass_Math_Room_102_4_5
 x_Mr_Smith_11_7_FullClass_Math_Room_102_4_6
 x_Mr_Smith_11_7_FullClass_Math_Room_102_5_1
 x_Mr_Smith_11_7_FullClass_Math_Room_102_5_2
 x_Mr_Smith_11_7_FullClass_Math_Room_102_5_3
 x_Mr_Smith_11_7_FullClass_Math_Room_102_5_4
 x_Mr_Smith_11_7_FullClass_Math_Room_102_5_5
 x_Mr_Smith_11_7_FullClass_Math_Room_102_5_6
 x_Ms_Johnson_11_7_PhysicsGroup1_Physics_Room_101_1_1
 x_Ms_Johnson_11_7_PhysicsGroup1_Physics_Room_101_1_2
 x_Ms_Johnson_11_7_PhysicsGroup1_Physics_Room_101_1_3
 x_Ms_Johnson_11_7_PhysicsGroup1_Physics_Room_101_1_4
 x_Ms_Johnson_11_7_PhysicsGroup1_Physics_Room_101_1_5
 x_Ms_Johnson_11_7_PhysicsGroup1_Physics_Room_101_1_6
 x_Ms_Johnson_11_7_PhysicsGroup1_Physics_Room_101_2_1
 x_Ms_Johnson_11_7_PhysicsGroup1_Physics_Room_101_2_2
 x_Ms_Johnson_11_7_PhysicsGroup1_Physics_Room_101_2_3
 x_Ms_Johnson_11_7_PhysicsGroup1_Physics_Room_101_2_4
 x_Ms_Johnson_11_7_PhysicsGroup1_Physics_Room_101_2_5
 x_Ms_Johnson_11_7_PhysicsGroup1_Physics_Room_101_2_6
 x_Ms_Johnson_11_7_PhysicsGroup1_Physics_Room_101_3_1
 x_Ms_Johnson_11_7_PhysicsGroup1_Physics_Room_101_3_2
 x_Ms_Johnson_11_7_PhysicsGroup1_Physics_Room_101_3_3
 x_Ms_Johnson_11_7_PhysicsGroup1_Physics_Room_101_3_4
 x_Ms_Johnson_11_7_PhysicsGroup1_Physics_Room_101_3_5
 x_Ms_Johnson_11_7_PhysicsGroup1_Physics_Room_101_3_6
 x_Ms_Johnson_11_7_PhysicsGroup1_Physics_Room_101_4_1
 x_Ms_Johnson_11_7_PhysicsGroup1_Physics_Room_101_4_2
 x_Ms_Johnson_11_7_PhysicsGroup1_Physics_Room_101_4_3
 x_Ms_Johnson_11_7_PhysicsGroup1_Physics_Room_101_4_4
 x_Ms_Johnson_11_7_PhysicsGroup1_Physics_Room_101_4_5
 x_Ms_Johnson_11_7_PhysicsGroup1_Physics_Room_101_4_6
 x_Ms_Johnson_11_7_PhysicsGroup1_Physics_Room_101_5_1
 x_Ms_Johnson_11_7_PhysicsGroup1_Physics_Room_101_5_2
 x_Ms_Johnson_11_7_PhysicsGroup1_Physics_Room_101_5_3
 x_Ms_Johnson_11_7_PhysicsGroup1_Physics_Room_101_5_4
 x_Ms_Johnson_11_7_PhysicsGroup1_Physics_Room_101_5_5
 x_Ms_Johnson_11_7_PhysicsGroup1_Physics_Room_101_5_6
 x_Mr_Lee_11_7_PhysicsGroup2_Physics_Room_102_1_1
 x_Mr_Lee_11_7_PhysicsGroup2_Physics_Room_102_1_2
 x_Mr_Lee_11_7_PhysicsGroup2_Physics_Room_102_1_3
 x_Mr_Lee_11_7_PhysicsGroup2_Physics_Room_102_1_4
 x_Mr_Lee_11_7_PhysicsGroup2_Physics_Room_102_1_5
 x_Mr_Lee_11_7_PhysicsGroup2_Physics_Room_102_1_6
 x_Mr_Lee_11_7_PhysicsGroup2_Physics_Room_102_2_1
 x_Mr_Lee_11_7_PhysicsGroup2_Physics_Room_102_2_2
 x_Mr_Lee_11_7_PhysicsGroup2_Physics_Room_102_2_3
 x_Mr_Lee_11_7_PhysicsGroup2_Physics_Room_102_2_4
 x_Mr_Lee_11_7_PhysicsGroup2_Physics_Room_102_2_5
 x_Mr_Lee_11_7_PhysicsGroup2_Physics_Room_102_2_6
 x_Mr_Lee_11_7_PhysicsGroup2_Physics_Room_102_3_1
 x_Mr_Lee_11_7_PhysicsGroup2_Physics_Room_102_3_2
 x_Mr_Lee_11_7_PhysicsGroup2_Physics_Room_102_3_3
 x_Mr_Lee_11_7_PhysicsGroup2_Physics_Room_102_3_4
 x_Mr_Lee_11_7_PhysicsGroup2_Physics_Room_102_3_5
 x_Mr_Lee_11_7_PhysicsGroup2_Physics_Room_102_3_6
 x_Mr_Lee_11_7_PhysicsGroup2_Physics_Room_102_4_1
 x_Mr_Lee_11_7_PhysicsGroup2_Physics_Room_102_4_2
 x_Mr_Lee_11_7_PhysicsGroup2_Physics_Room_102_4_3
 x_Mr_Lee_11_7_PhysicsGroup2_Physics_Room_102_4_4
 x_Mr_Lee_11_7_PhysicsGroup2_Physics_Room_102_4_5
 x_Mr_Lee_11_7_PhysicsGroup2_Physics_Room_102_4_6
 x_Mr_Lee_11_7_PhysicsGroup2_Physics_Room_102_5_1
 x_Mr_Lee_11_7_PhysicsGroup2_Physics_Room_102_5_2
 x_Mr_Lee_11_7_PhysicsGroup2_Physics_Room_102_5_3
 x_Mr_Lee_11_7_PhysicsGroup2_Physics_Room_102_5_4
 x_Mr_Lee_11_7_PhysicsGroup2_Physics_Room_102_5_5
 x_Mr_Lee_11_7_PhysicsGroup2_Physics_Room_102_5_6 y_11_7_group0_1_1
 y_11_7_group0_1_2 y_11_7_group0_1_3 y_11_7_group0_1_4 y_11_7_group0_1_5
 y_11_7_group0_1_6 y_11_7_group0_2_1 y_11_7_group0_2_2 y_11_7_group0_2_3
 y_11_7_group0_2_4 y_11_7_group0_2_5 y_11_7_group0_2_6 y_11_7_group0_3_1
 y_11_7_group0_3_2 y_11_7_group0_3_3 y_11_7_group0_3_4 y_11_7_group0_3_5
 y_11_7_group0_3_6 y_11_7_group0_4_1 y_11_7_group0_4_2 y_11_7_group0_4_3
 y_11_7_group0_4_4 y_11_7_group0_4_5 y_11_7_group0_4_6 y_11_7_group0_5_1
 y_11_7_group0_5_2 y_11_7_group0_5_3 y_11_7_group0_5_4 y_11_7_group0_5_5
 y_11_7_group0_5_6 y_11_7_group1_1_1 y_11_7_group1_1_2 y_11_7_group1_1_3
 y_11_7_group1_1_4 y_11_7_group1_1_5 y_11_7_group1_1_6 y_11_7_group1_2_1
 y_11_7_group1_2_2 y_11_7_group1_2_3 y_11_7_group1_2_4 y_11_7_group1_2_5
 y_11_7_group1_2_6 y_11_7_group1_3_1 y_11_7_group1_3_2 y_11_7_group1_3_3
 y_11_7_group1_3_4 y_11_7_group1_3_5 y_11_7_group1_3_6 y_11_7_group1_4_1
 y_11_7_group1_4_2 y_11_7_group1_4_3 y_11_7_group1_4_4 y_11_7_group1_4_5
 y_11_7_group1_4_6 y_11_7_group1_5_1 y_11_7_group1_5_2 y_11_7_group1_5_3
 y_11_7_group1_5_4 y_11_7_group1_5_5 y_11_7_group1_5_6
End
